%chk=kojate_solvated_3_optimized_Reduced_Structure.chk
#p B3LYP empiricaldispersion=gd3 scrf=(cpcm,solvent=water) scf=(maxcycles=500,xqc,maxconventional=1000) 6-31+G(2df,p)

Reduced_Structure

-1 1
C            2.25227998999547        3.24585997203664        0.78584998664422
C            3.38779001838918        3.73184000456185        0.20815996799964
O            3.93551001090474        3.16955999110246       -0.86916000084237
C            3.34611002743189        2.06860999507010       -1.45289005840189
C            2.19874999235467        1.47643002335046       -0.96125998263213
C            1.60262000919505        2.09274999045477        0.24225997791398
O            0.56257999647536        1.57634000222276        0.71744999984070
O            1.61585001148657        0.44769999111757       -1.45181001103858
C            4.16744998185795        4.93458001102745        0.67633002684100
O            4.01153000037123        5.20591999325308        2.06342000507098
H            1.83018000267389        3.74347999843868        1.65062999459146
H            3.89398001102360        1.73132000574806       -2.32037994405576
H            5.22433000334369        4.78493000070832        0.40913999196869
H            3.82384000071457        5.83960001332626        0.16035000053826
H            4.10130999903886        4.37370999914875        2.54233998887660
Fe          -0.00268000291325        0.00226999634767       -0.36812999878629
C           -3.93924999715099        0.32280999881210        0.78865001458880
C           -4.93088999976030        1.05849000349274        0.21017002846520
O           -4.72072001819435        1.81420999775652       -0.86753000769522
C           -3.47261998313893        1.85917000398834       -1.45107999075859
C           -2.38334001217810        1.16627001232952       -0.95894999361556
C           -2.61583999828968        0.34177000849467        0.24513000402700
O           -1.64600999598413       -0.29643000175257        0.72084000208263
O           -1.20097000375883        1.18023000213178       -1.44933999454910
C           -6.36285000676143        1.12606999301580        0.67770002583725
O           -6.51914001082025        0.85607999566053        2.06543004467082
H           -4.15681999237018       -0.29195000657885        1.65376001084840
H           -3.45701000221981        2.50187000386613       -2.31892000460389
H           -6.76626000103846        2.11419000096217        0.40909999180624
H           -6.97109999555094        0.37223999674369        0.16215000626388
H           -5.84577999682029        1.35382001293516        2.54412000300782
C            1.69039999724733       -3.56685000018530        0.78597000315728
C            1.54733000468401       -4.79376000202800        0.20852000030897
O            0.78511000392372       -4.98996001264265       -0.86725000629220
C            0.12104999956036       -3.93166001592526       -1.44977000387251
C            0.17788000645870       -2.64163001072149       -0.95838999810743
C            1.01121999831657       -2.43031999579852        0.24351000507524
O            1.08054999879828       -1.27110000013667        0.71847000079529
O           -0.42648000007628       -1.62478999617582       -1.44780000219905
C            2.20559000214414       -6.06769999872205        0.67491000917703
O            2.52400999478463       -6.06648999871838        2.06081000855466
H            2.33381000095540       -3.44747999977032        1.64934999843610
H           -0.44551999200791       -4.23976999932512       -2.31608000043156
H            1.54961000145583       -6.91079000050026        0.41068000099168
H            3.15976000048827       -6.21931000014515        0.15516000006109
H            1.75874999655486       -5.73147999779503        2.54270000038133
O           -0.49947178502798        0.56114627299407        3.08156984440841
H           -0.93376042381537       -0.06175128316989        2.47966190654332
H            0.01300842972647        1.08003543041839        2.44183814565633
O           -1.82079416266629       -5.24116466648805        9.88414684761832
H           -2.13680814466350       -5.03549041055182        8.99930167897186
H           -2.45673714934657       -4.83356075829703       10.49607249179344
O           -0.42978201275882        3.50083853633200        7.29121108383989
H            0.11249153398834        3.71014023824083        6.52439817837085
H           -1.13914909720171        2.92901967545296        6.98386982892785
O            1.46046682700231       -2.66558840371152        6.38918980550684
H            1.82767210238981       -1.87829260642435        5.97615021826996
H            0.62665867424495       -2.84972831605248        5.94506389561712
O           -4.17828519918974       -1.12043311047697        6.90808341903481
H           -3.61442449155186       -0.93084882666139        6.15180311908758
H           -4.70226064451741       -1.89579189839449        6.68516414340794
O            4.33042380781743        2.75615362764027        3.41516762563600
H            4.33150417179985        1.88620188871906        3.00641302332360
H            4.01693271674733        2.63816053845479        4.31754414174168
O           -2.62203395385524       -6.16341633093843        4.53923104751422
H           -2.37914563693103       -7.09222790402621        4.47865771478386
H           -3.56320737424727       -6.10565948300094        4.34809203174770
O           -3.55678830642127        5.22023926854327        3.32432703578613
H           -2.73803659765363        4.78932308783163        3.05951223661853
H           -3.98637710511038        5.52387251821566        2.51938052061136
O            6.72418367362841       -0.92488869560090        5.88404078805704
H            7.67054143953742       -0.83955166236322        6.03263298798909
H            6.46841285559328       -1.79792593773825        6.19657111388660
O           -8.29716710692672       -4.19240526209135        3.59127073883992
H           -8.61647968713859       -4.75590573230457        2.87974319216636
H           -7.73231955207425       -3.52433117967728        3.18950372536353
O            1.78991508600752        6.58403607527528        3.22776502460109
H            2.56254217791628        6.19199885976766        2.78994377901239
H            2.14902821668022        7.10622649043104        3.96196166434610
O            4.45661450206836       -7.37470018919730        3.64837489503550
H            4.94766901575741       -6.62008777479271        3.98758602208958
H            3.81937622529228       -7.01006297011851        3.01306148189088
O           -7.75662236248214        4.30342272474700        0.01953305908874
H           -7.50077829703512        4.83841741949981       -0.73811043834501
H           -8.69156820803587        4.47047441442251        0.17609196138975
O            8.64848748263053        0.90951692154569        0.98377360035131
H            7.99519529845717        0.93425891871417        0.27778168196507
H            8.42363601638867        0.16411024152410        1.54969949355305
O           -4.96976243107501       -5.27382405157790       -0.09764846017394
H           -4.43100206254462       -5.93544194809616       -0.54056688299674
H           -4.40721348871159       -4.50691229200579        0.04691093705701
O           -1.24536356667133        7.28444064561783       -0.99943916058167
H           -1.18565148876409        6.32454198894336       -1.02578166900526
H           -0.39225852163477        7.60668354645778       -0.69352191604636
O            5.25711445753887       -6.17049694100352       -0.86978071688713
H            5.94832979410988       -5.56840691863891       -0.57737308578200
H            5.60556653535205       -6.64635873192065       -1.62974080569176
O           -8.33495623210888       -1.20366759894165       -0.91912570706908
H           -8.02656118129816       -1.98574900681952       -1.38679341255688
H           -9.29530048420742       -1.20189501093053       -0.97959776159906
O            3.75592319857122        0.97743615441944       -7.62310428797211
H            3.43357237475243        1.46692825734229       -6.85984343017892
H            3.45147088997670        0.07111085983055       -7.51502767138088
O            2.39954817309971       -8.59094040690868       -4.77939549455570
H            1.94018104398852       -8.03755523950605       -4.13948352678057
H            2.33653034114733       -8.14546938827539       -5.62963421782526
O           -5.18563407899668        6.25749697389648       -4.74330264031038
H           -5.26703448671038        5.75445320149468       -5.55928663269357
H           -4.24527389885226        6.39196994016371       -4.58910019399910
O            4.83164759952402       -3.17063348473839       -4.43872318269292
H            4.79592597701781       -2.46224500892797       -3.78836238502083
H            3.93293847126309       -3.49804739220823       -4.54198347019061
O           -4.68667804754289       -1.98853816796798       -4.96532454200404
H           -4.30025148364442       -2.29337803991409       -4.13838210211317
H           -4.15464859521682       -1.24267774141448       -5.25949847562477
O           -0.05967674197398        4.37546355838141       -5.58817892976298
H           -0.58825685501978        3.58015511717616       -5.70813777051799
H            0.40343160597784        4.26878646934902       -4.75171021875115
O            0.48530273184401       -0.49139269198027       -3.77649583462838
H            1.00638485041780        0.02917131397226       -3.14085127983852
H           -0.09075122290043       -0.95072560245382       -3.14134808118144
O           -0.03259307993324       -0.14028929326290       11.11137779476459
H            0.07840165162320       -0.94880751895375       10.60110060595969
H           -0.83126031439158        0.28770776674532       10.78813274621614
O           -3.73404476291326       -3.94577106861076       11.51738849329083
H           -3.48276208627970       -3.58832819073071       12.38566291133928
H           -4.41285031471813       -3.35819362158480       11.17148199165782
O            1.16895133285560        7.34819305738170       10.24654498461667
H            1.68860694053288        6.54008624459377       10.18911846376252
H            0.28956984840272        7.13934272225125        9.91698641505321
O            2.98569496903794       -4.54744500834024        7.91007630753943
H            2.47808499958742       -5.35870227618709        7.81118886274568
H            2.48896633888120       -3.86213601116849        7.43514727770421
O           -5.02530380931884        0.88316606696339        8.75578075375968
H           -4.67352857712472        0.17242130639279        8.19608980585629
H           -5.81133841170525        1.20841530584336        8.30666195156306
O            4.43656905284035        2.48172289042367        9.06064128366495
H            4.99050568923925        1.75722013090571        9.36625072750772
H            3.54708156848356        2.30820865230785        9.38387301925098
O           -1.20795780826177      -10.01146040607606        8.14965949617049
H           -0.51822506259767       -9.34064843346195        8.17631672200970
H           -1.71886119551460       -9.91994481722871        8.95964806103158
O           -4.10248293312144        7.57837892022007        7.94541090255711
H           -3.87327842548755        6.65189983456575        7.82210524930944
H           -4.24174230362232        7.95041232661814        7.06912185138508
O            7.79986009172579       -7.37484520080221        7.94147025104186
H            7.05116456626664       -6.80761426879362        8.15161401748371
H            7.43860013427135       -8.20163893107306        7.60688699702389
O           -7.87624090091769       -5.16889412298118        6.23573830331529
H           -8.00964804471468       -4.86571400676650        5.32243315480690
H           -8.49533422634909       -4.66694680133484        6.77405607825126
O            2.92036899469955        8.08940700456740        5.41687908511608
H            3.53654965648798        7.67932693531161        6.03213671581038
H            2.44468462953946        8.76844515624971        5.90493481769726
O            3.38826609369646       -9.35909249285035        5.32198452973615
H            2.63699171909163       -9.68271045258479        4.81594700477300
H            3.81379002001210       -8.68392139163476        4.76296681498763
O           -8.37145495230645        4.49078949436171        6.05613564648948
H           -7.84966646546875        4.56436621000219        5.25061876020838
H           -8.23934336381606        5.30504355382081        6.55101033081595
O            7.98867122269356        5.57891121332448        6.04808403554085
H            7.44775897778939        4.89979892747869        6.46347476803947
H            7.66207084948598        5.68652149323055        5.14904036560830
O           -4.81025822325515      -10.12978814970183        1.63567527079746
H           -4.62487542465962      -10.83094746874752        2.26783275910802
H           -5.64811920224017       -9.73177574226496        1.89155010309624
O           -2.49226473208491       10.26280364709674        3.27541564559378
H           -1.83841206115996        9.56050725602853        3.35366887015461
H           -2.62159046050585       10.42217398245643        2.33554807083298
O            9.27180108059728       -4.51537620996487        3.51502050398669
H            9.39089027968196       -5.33641038925512        4.00237305681386
H            9.56165090873525       -4.68088884751887        2.61282389782191
O          -11.44480092195169        0.63994643211964        3.33855715922254
H          -10.97149802077725       -0.19232192170261        3.24225926477588
H          -10.78166207883671        1.33636137673390        3.37810982125300
O            6.95413872901559        9.88360051888565        2.10448213664895
H            7.08886878884785       10.28942338341626        2.97474409743354
H            6.34541413597199        9.15212625341792        2.25056356644929
O           -0.07007989865751       -8.66489702235151        0.27257471223831
H           -0.25681396382501       -9.34307022341658        0.92960501631261
H           -0.75932308137685       -8.72855198983602       -0.39508604943050
O           -6.14340500899901        9.88299467655894       -0.98290846986416
H           -5.61442659272308        9.08088881983163       -1.04129244688569
H           -6.88345381663086        9.77472556135859       -1.58816524583367
O            9.80087956553944       -3.19057850727224       -1.84344963098059
H            9.36125446500232       -2.59409570288396       -2.45743672886488
H           10.59481850286784       -2.74303334655402       -1.53610472456423
O           -8.84141155719022       -7.54640329399283       -2.11824947079084
H           -8.13896014153674       -8.19767052482633       -2.21033108794351
H           -8.62136636511555       -6.80878162210491       -2.69540249058136
O            2.05810807260532       11.45460239302875        0.58822354126309
H            2.80141652534867       11.16333188502097        0.05142809942034
H            2.12339760726062       10.99008428662792        1.42872367380463
O            4.20742369253561      -11.44428102174027       -0.23718363097653
H            4.10481554178536      -11.00788428804928        0.61454082717752
H            3.90693171449343      -10.82332988318515       -0.90863038532308
O           -8.58404359571751        2.30012912279477       -4.82256871988077
H           -7.75526307618994        1.98732110241469       -4.44649139092973
H           -9.26037577580888        2.17795033135770       -4.14914527386104
O            8.12855864266984        1.44101579521730       -4.43490541832593
H            7.81489025465312        0.92553120915060       -5.18460802244656
H            7.80751375357233        2.33979146006025       -4.55610019262757
O           -2.75489089067947       -7.43530169145256       -4.49329809803008
H           -2.80031565541886       -8.27718200238639       -4.95634523982686
H           -3.01156826752589       -6.75342927404445       -5.12190843704590
O           -2.44085205831955        8.39695375186529       -8.52441263672388
H           -1.69059870327763        7.89144296811971       -8.19544503940507
H           -2.46690202473062        9.21774037300596       -8.02326783347736
O            6.82567338057117       -3.56666548220052       -6.42998348395337
H            7.23600520939281       -4.38621343754492       -6.13763881067453
H            6.13062025672416       -3.37386230464940       -5.77909744643304
O           -9.85334666329466       -3.14114465606258       -5.60256134838296
H           -9.52305160881259       -3.85257653871078       -6.15957157923775
H           -9.32526537260154       -2.36155255764942       -5.80190448963253
O            1.90298827777365        5.26221468790713      -10.64610259060619
H            1.78964552678383        4.69542618289840       -9.87647592229651
H            2.11853758483144        6.14073625485645      -10.31821260916107
O            0.31554285081388       -4.38913661195539       -7.59739685481596
H            0.44079643322206       -3.91415820831067       -8.42436160670752
H           -0.00534042169961       -3.75102088192062       -6.95229506898863
O           -3.77484439582091        2.88424956386826       -9.08980651029037
H           -3.30322064338609        2.21426931133749       -9.59429865206671
H           -3.47473896755912        3.74012074802581       -9.41146569644980
O            0.08245482675609       -0.37015949879736      -11.45871419799553
H            0.40868234946782       -0.88918327287479      -12.19995464840235
H            0.76345553849856        0.27689289167966      -11.24928216631213
O            4.12299268071157        0.98985311267923       13.91960511495530
H            3.84379769803941        0.07201028126766       13.84313474342969
H            3.32414329143196        1.51581724167289       14.02855067009458
O           -2.96462300489854       -2.73605199380368       13.94802885855715
H           -2.07416394090167       -2.87046434055432       14.28691716628481
H           -3.22575704718306       -1.83907140824088       14.18012042114155
O            0.38039258759677        5.05245125195486       14.86893461272830
H            0.93257711719911        5.82961245088808       14.73683769512479
H           -0.49800299806010        5.27377311820297       14.54388825858737
O            2.63676987086071       -4.51378020982346       13.15209896846839
H            3.38893193580805       -4.38886314315320       12.56505131352871
H            1.88432443598768       -4.73772023398664       12.59493975965032
O           -7.21336293149301        0.57294999884385       13.41834026867897
H           -7.39093257304515       -0.02966956402661       12.68897342455103
H           -6.76190448906220        1.33667987041712       13.04507678686159
O            5.99149413409355        6.16857405203244       12.36309896693543
H            6.38199947272400        5.91267623993693       11.52143551664160
H            5.63553914604245        5.36816180510830       12.76186405607393
O           -2.84875231884680       -8.94666625961825       13.47175880329091
H           -2.03635315572282       -8.43409163681024       13.40960378735265
H           -3.57189162574822       -8.34911725765814       13.25628269283399
O           -3.76618438751393        8.31445225304508       13.09255848894941
H           -4.47699036665135        7.88576454626646       12.60577028217639
H           -3.25139789642836        8.81586778289746       12.45214114588307
O           11.36599467429142       -2.93269504068088        8.13616943602356
H           10.89421678296426       -3.77171778626367        8.13948784617177
H           11.68595065596535       -2.79218273008544        7.23917485533993
O          -10.16528311897384       -0.67960852279497        8.75767724323984
H          -10.68073435683088       -0.20549366761203        9.41641421610884
H          -10.47701066066333       -0.38794833636273        7.89457254402959
O            4.76385583146660       10.87040999333196        9.49557524615854
H            4.91834949355369       10.18311398972189       10.15109440480856
H            3.86099886374958       11.17908490731332        9.62105281808757
O            2.77843201867313      -13.99400839572368        7.56659292746898
H            3.58233986026783      -13.64935522435782        7.16514577870421
H            2.26902034888467      -13.23509235251627        7.86882497002420
O          -12.57104016461841        5.95944336501661        3.26657129573058
H          -12.68850866936294        5.48497654089414        4.09567543103530
H          -11.74586698856491        6.44947751346135        3.33853895084713
O           11.60899185692807        1.80081706283410        5.52174201293680
H           11.29331075100960        2.12393134676233        6.37112626585402
H           11.10848509167664        2.26178810283396        4.84082939041453
O           -6.50292066723352      -10.14835899451842        6.49808431006868
H           -5.83969628993832       -9.52078379925647        6.80326953495284
H           -7.36004864597215       -9.72608808913208        6.61047031356843
O           -0.45652928182973       11.98618792496831        7.82456256941868
H           -0.98996355016138       11.19816856063137        7.97011253873576
H           -0.80298191871847       12.41857387253457        7.03792842809731
O            9.21633321313863       -9.15295060273822        1.18427193673041
H            9.39222057917216      -10.08812031957836        1.04437919547529
H            8.28415871504180       -9.07515172220636        1.41265030828825
O          -13.90327389608461        0.91052347351266        4.73925844739618
H          -13.05827762727917        0.80617366248303        4.26984408035375
H          -14.55360844183610        1.12667130398928        4.06455820258251
O            7.04634343285922       10.80413524778733        4.82351948151820
H            7.41339827916263       10.29941205945113        5.55633951367232
H            6.39721500738668       11.40901663686346        5.19594698099511
O           -0.54258224114340      -13.10363978449379        3.56871435109617
H            0.02878122622149      -13.85543010851624        3.75247455271061
H           -0.88008336686029      -12.79385272264062        4.41513983194954
O           -7.93110176386977        9.08781119657205        3.78389135723434
H           -7.03406194840381        8.92005589300276        3.47810458596280
H           -8.25627711169740        9.84721533528999        3.29137304735197
O           13.68094995781470       -1.63362290709659        2.19006072202686
H           14.20444632181226       -1.16965830000348        2.85075542285690
H           12.77202216829678       -1.33483401675240        2.29631974987056
O          -10.85896119902261       -7.56451148856073       -0.09897730206822
H          -10.13158292938703       -7.49365240325114       -0.73803727974489
H          -11.41474115859838       -8.28353997200433       -0.41406190124044
O            1.87109923032055       16.62718591624062        1.21873730626650
H            2.33576813974126       15.97994535142809        1.75879424759325
H            1.40029400404728       16.13607436692493        0.53793121394363
O            6.44309656922529      -13.04656565506600       -0.91277745573028
H            6.06225997306464      -13.76215768516655       -1.43054781382829
H            5.69295030266917      -12.49380969391555       -0.63240068116163
O          -12.84835158755045        2.64108310652156       -1.18581135177298
H          -13.00820294696783        1.70212800468773       -1.04820011279655
H          -13.14946654371419        3.09691608896968       -0.39358868845273
O            9.66797106808411        6.12041020263268       -1.17491490455008
H            9.62363418003283        5.21788155220399       -0.84332896212011
H            9.44513437503743        6.70360968116630       -0.44261169431690
O           -5.49066803969309      -11.95329631302270       -3.62195984796762
H           -4.93056550927889      -12.63604812519636       -4.00364838020219
H           -5.09018508535803      -11.70083456493275       -2.78379904243549
O           -1.47424197723735       11.45209534047240       -3.92085472913227
H           -0.90980109628058       11.54426288647077       -3.14679590343638
H           -2.32152936061647       11.11791848090879       -3.61027954633013
O            9.24410286752353       -8.24172305555732       -4.13714214711862
H            9.69855327167301       -7.58165839608029       -3.60398258151849
H            9.14090391734907       -9.02488927874722       -3.58729281390177
O          -13.56267799003983       -2.98373976916921       -1.43771983619807
H          -13.38083811944767       -3.69666245807058       -0.81716224167681
H          -13.23633325098038       -3.26947933336603       -2.29699808356464
O            4.38465245879275        7.18794278148153       -2.05096209193636
H            4.36018895649459        6.80037996639944       -2.93121990187738
H            5.16368166475852        7.75223737938849       -2.01973486033994
O           -0.47190378351558      -12.96385940446294       -2.68511602073402
H           -0.05954820343342      -13.12789893638506       -1.83107978244734
H            0.11119142008619      -12.37249102313811       -3.17161965986851
O          -10.43595471354981        7.19482288733234       -3.52413838150880
H          -11.05455183359193        6.48608574576703       -3.32033566880679
H           -9.84844642717854        6.86588246313070       -4.21201033604830
O           11.53486414158358        4.97640097951211       -6.25721572323444
H           11.84760405048820        4.12890943602094       -5.92527027550379
H           11.31898365747775        5.51550015252235       -5.48959015651371
O           -7.26952773378078       -7.88907947239173       -7.06565545801542
H           -7.08635804769568       -8.78021943447271       -6.75165365199349
H           -6.69753072786221       -7.73236637869230       -7.82335917450109
O            2.51260201184001        9.85615950704255       -7.38375778681209
H            2.95685780963623        9.17329502834458       -6.87132669845680
H            2.02024971572149       10.40014081922765       -6.76112965529958
O            6.30969351677588       -8.37857590996300       -8.77908815168572
H            6.38010573233973       -8.65748324211205       -7.86045668287413
H            7.16578632964160       -8.01664897661316       -9.02825312143198
O           -8.78012480357711        0.48557784160435       -9.65396425561969
H           -8.02357624310010        0.99463367117528       -9.34563396369482
H           -9.55034944338659        0.81733439985209       -9.18208251033338
O            6.19542047421452        5.83452448431869       -7.21063975200615
H            7.09240434304349        6.14980394194257       -7.35717210160186
H            6.01434682044537        5.17545132716081       -7.88805457369182
O           -2.31215748236159       -8.39518319298944       -9.61534658220468
H           -1.36993837104297       -8.45261564115576       -9.42818228508835
H           -2.49619061168871       -7.47876857053438       -9.84515035949222
O           -2.79338421396037        6.43285475091359      -13.30855651973260
H           -1.94280314071482        6.73376509614431      -12.97285741020694
H           -3.47130059219041        6.91391022625169      -12.82386517418343
O            4.37131253513830       -3.55220188554667      -11.13448526315537
H            4.48068658478042       -4.39162357126587      -10.67633520988599
H            4.94518065061684       -2.91760138890583      -10.69368568395370
O           -4.49448818702190       -3.25431217054614       -9.85884845211776
H           -3.79591486948528       -2.59276363356646       -9.83164159325615
H           -5.31704941108432       -2.80436018499736       -9.64243629418925
O            0.86254471195655        2.68969253008171      -15.34241531429067
H            1.52716429682460        3.17518590503880      -14.84329426621177
H            0.00324360592158        2.98926339965373      -15.02828101634586


