%chk=kojate_solvated_1_Oxidized_Structure.chk
#p B3LYP empiricaldispersion=gd3 scrf=(cpcm,solvent=water) scf=(maxcycles=500,xqc,maxconventional=1000) 6-31+G(2df,p)

Oxidized_Structure

0 2
C          2.25228        3.24586        0.78585
C          3.38779        3.73184        0.20816
O          3.93551        3.16956       -0.86916
C          3.34611        2.06861       -1.45289
C          2.19875        1.47643       -0.96126
C          1.60262        2.09275        0.24226
O          0.56258        1.57634        0.71745
O          1.61585        0.44770       -1.45181
C          4.16745        4.93458        0.67633
O          4.01153        5.20592        2.06342
H          1.83018        3.74348        1.65063
H          3.89398        1.73132       -2.32038
H          5.22433        4.78493        0.40914
H          3.82384        5.83960        0.16035
H          4.10131        4.37371        2.54234
Fe        -0.00268        0.00227       -0.36813
C         -3.93925        0.32281        0.78865
C         -4.93089        1.05849        0.21017
O         -4.72072        1.81421       -0.86753
C         -3.47262        1.85917       -1.45108
C         -2.38334        1.16627       -0.95895
C         -2.61584        0.34177        0.24513
O         -1.64601       -0.29643        0.72084
O         -1.20097        1.18023       -1.44934
C         -6.36285        1.12607        0.67770
O         -6.51914        0.85608        2.06543
H         -4.15682       -0.29195        1.65376
H         -3.45701        2.50187       -2.31892
H         -6.76626        2.11419        0.40910
H         -6.97110        0.37224        0.16215
H         -5.84578        1.35382        2.54412
C          1.69040       -3.56685        0.78597
C          1.54733       -4.79376        0.20852
O          0.78511       -4.98996       -0.86725
C          0.12105       -3.93166       -1.44977
C          0.17788       -2.64163       -0.95839
C          1.01122       -2.43032        0.24351
O          1.08055       -1.27110        0.71847
O         -0.42648       -1.62479       -1.44780
C          2.20559       -6.06770        0.67491
O          2.52401       -6.06649        2.06081
H          2.33381       -3.44748        1.64935
H         -0.44552       -4.23977       -2.31608
H          1.54961       -6.91079        0.41068
H          3.15976       -6.21931        0.15516
H          1.75875       -5.73148        2.54270
O 2.407256735887955 -0.0006380434782612941 8.400217628634474
H 3.3072567358879548 -0.0006380434782612941 8.400217628634474
H 2.114245396876514 0.8503286745611239 8.400217628634474
O -3.0092986696772064 -2.7581170753042508 7.712652971175803
H -2.1092986696772065 -2.7581170753042508 7.712652971175803
H -3.3023100086886474 -1.9071503572648656 7.712652971175803
O 0.45161172329331173 5.136351960140276 7.025088313717134
H 1.3516117232933118 5.136351960140276 7.025088313717134
H 0.15860038428187073 5.987318678179661 7.025088313717134
O 3.6297534727082565 -4.73399074991422 6.337523656258464
H 4.529753472708257 -4.73399074991422 6.337523656258464
H 3.3367421336968155 -3.883024031874835 6.337523656258464
O -6.502112708453165 1.1496321901361952 5.649958998799794
H -5.602112708453165 1.1496321901361952 5.649958998799794
H -6.795124047464606 2.00059890817558 5.649958998799794
O 6.008763590233072 3.8211490541109887 4.962394341341125
H 6.908763590233073 3.8211490541109887 4.962394341341125
H 5.715752251221631 4.672115772150374 4.962394341341125
O -1.9565672531646738 -7.281873879542422 4.274829683882455
H -1.056567253164674 -7.281873879542422 4.274829683882455
H -2.249578592176115 -6.430907161503037 4.274829683882455
O -3.6298038888104776 6.989831145440785 3.5872650264237853
H -2.7298038888104776 6.989831145440785 3.5872650264237853
H -3.9228152278219186 7.84079786348017 3.5872650264237853
O 7.649331111451253 -2.7938764833638188 2.8997003689651146
H 8.549331111451252 -2.7938764833638188 2.8997003689651146
H 7.356319772439812 -1.9429097653244336 2.8997003689651146
O -7.711371096383674 -3.1841020849362542 2.212135711506445
H -6.811371096383674 -3.1841020849362542 2.212135711506445
H -8.004382435395115 -2.333135366896869 2.212135711506445
O 3.5966197729675304 7.683461759870185 1.5245710540477746
H 4.496619772967531 7.683461759870185 1.5245710540477746
H 3.3036084339560894 8.53442847790957 1.5245710540477746
O 2.5647487391812476 -8.174973022083906 0.8370063965891057
H 3.4647487391812475 -8.174973022083906 0.8370063965891057
H 2.2717374001698065 -7.324006304044521 0.8370063965891057
O -7.435327678509627 4.308738604487451 0.14944173913043532
H -6.535327678509627 4.308738604487451 0.14944173913043532
H -7.728339017521068 5.159705322526836 0.14944173913043532
O 8.367973005961339 1.83886577147512 -0.5381229183282351
H 9.26797300596134 1.83886577147512 -0.5381229183282351
H 8.074961666949898 2.6898324895145054 -0.5381229183282351
O -4.878522543212284 -6.940944433169424 -1.2256875757869041
H -3.9785225432122844 -6.940944433169424 -1.2256875757869041
H -5.171533882223725 -6.089977715130039 -1.2256875757869041
O -1.0714310412430967 8.273543915700863 -1.9132522332455746
H -0.17143104124309672 8.273543915700863 -1.9132522332455746
H -1.3644423802545378 9.124510633740249 -1.9132522332455746
O 6.227038281268417 -5.248134748069566 -2.6008168907042455
H 7.127038281268417 -5.248134748069566 -2.6008168907042455
H 5.934026942256976 -4.397168030030181 -2.6008168907042455
O -7.869535716104071 -0.32610032553052276 -3.2883815481629126
H -6.969535716104071 -0.32610032553052276 -3.2883815481629126
H -8.162547055115512 0.5248663925088624 -3.2883815481629126
O 5.345166444723068 5.317739852896746 -3.9759462056215833
H 6.245166444723068 5.317739852896746 -3.9759462056215833
H 5.052155105711627 6.168706570936131 -3.9759462056215833
O -0.3281270468556099 -7.113565576076818 -4.663510863080254
H 0.5718729531443901 -7.113565576076818 -4.663510863080254
H -0.621138385867051 -6.262598858037433 -4.663510863080254
O -4.230362093196598 5.06968480133232 -5.351075520538922
H -3.3303620931965985 5.06968480133232 -5.351075520538922
H -4.5233734322080394 5.920651519371705 -5.351075520538922
O 5.911915321425549 -0.7959728820391578 -6.038640177997594
H 6.811915321425549 -0.7959728820391578 -6.038640177997594
H 5.618903982414108 0.054993836000227336 -6.038640177997594
O -4.232168424802806 -2.9458136070247796 -6.726204835456265
H -3.332168424802806 -2.9458136070247796 -6.726204835456265
H -4.525179763814247 -2.094846888985394 -6.726204835456265
O 0.8967448604966071 3.9820136578283694 -7.413769492914933
H 1.7967448604966072 3.9820136578283694 -7.413769492914933
H 0.603733521485166 4.832980375867755 -7.413769492914933
O 1.197234427749388 -2.088609793884747 -8.101334150373605
H 2.097234427749388 -2.088609793884747 -8.101334150373605
H 0.904223088737947 -1.237643075845362 -8.101334150373605


