%chk=Fe_3_svwn_3_6.chk
#p svwn 6-31+G(2df,p) scf=(maxcycles=500,xqc,maxconventional=50) scrf=(cpcm,solvent=water)

Fe_3_svwn_solvated_radius_4_solvated_radius_6

3 6
Fe        -0.00000        0.00002        0.00002
O          0.40340        1.53961        1.21172
H          1.02008        1.53016        1.98241
O         -1.50601       -0.54828        1.19715
H         -2.10569       -1.32100        1.06444
O         -1.25373        1.15396       -1.04804
H         -1.02082        1.70885       -1.83046
O         -0.40352       -1.53957       -1.21172
H         -0.02247       -2.44794       -1.14856
O          1.50599        0.54792       -1.19732
H          2.10627        1.32017       -1.06459
O          1.25388       -1.15367        1.04817
H          1.02118       -1.70822        1.83089
H          2.21877       -1.27259        0.87737
H         -1.78532       -0.09611        2.02893
H          0.02245        2.44801        1.14842
H          1.78464        0.09584       -2.02937
H         -2.21869        1.27275       -0.87750
H         -1.02041       -1.53014       -1.98222
O 1.7984368212422701 -1.2105263157927295e-05 4.1249863157894735
H 2.6984368212422702 -1.2105263157927295e-05 4.1249863157894735
H 1.505425482230829 0.8509546127762272 4.1249863157894735
O -2.194756510403185 -2.010588853373718 3.3749863157894735
H -1.294756510403185 -2.010588853373718 3.3749863157894735
H -2.487767849414626 -1.159622135334333 3.3749863157894735
O 0.31954520972329037 3.6410407450732523 2.624986315789473
H 1.2195452097232904 3.6410407450732523 2.624986315789473
H 0.026533870711849372 4.492007463112637 2.624986315789473
O 2.488981640165723 -3.24644790393806 1.8749863157894737
H 3.388981640165723 -3.24644790393806 1.8749863157894737
H 2.195970301154282 -2.3954811858986744 1.8749863157894737
O -4.290501295589079 0.7589171618944838 1.1249863157894737
H -3.3905012955890794 0.7589171618944838 1.1249863157894737
H -4.58351263460052 1.6098838799338688 1.1249863157894737
O 3.7836921820271536 2.4068631452778 0.37498631578947395
H 4.683692182027154 2.4068631452778 0.37498631578947395
H 3.4906808430157126 3.257829863317185 0.37498631578947395
O -1.1641559880163614 -4.330614353861574 -0.3750136842105261
H -0.2641559880163614 -4.330614353861574 -0.3750136842105261
H -1.4571673270278025 -3.4796476358221886 -0.3750136842105261
O -2.0082208847229874 3.866695005207252 -1.1250136842105258
H -1.1082208847229875 3.866695005207252 -1.1250136842105258
H -2.3012322237344285 4.717661723246637 -1.1250136842105258
O 3.8425446017798257 -1.4033032309148237 -1.875013684210527
H 4.742544601779826 -1.4033032309148237 -1.875013684210527
H 3.5495332627683847 -0.5523365128754385 -1.875013684210527
O -3.378527264704986 -1.3946190468940425 -2.6250136842105256
H -2.478527264704986 -1.3946190468940425 -2.6250136842105256
H -3.671538603716427 -0.5436523288546573 -2.6250136842105256
O 1.2615649842234538 2.695878988713243 -3.3750136842105265
H 2.1615649842234537 2.695878988713243 -3.3750136842105265
H 0.9685536452120127 3.5468457067526282 -3.3750136842105265
O 0.5382431218213117 -1.7160159927331267 -4.1250136842105265
H 1.4382431218213116 -1.7160159927331267 -4.1250136842105265
H 0.24523178280987074 -0.8650492746937415 -4.1250136842105265
O 2.323169485433484 0.14572275080064012 6.138875204678361
H 3.223169485433484 0.14572275080064012 6.138875204678361
H 2.030158146422043 0.9966894688400253 6.138875204678361
O -2.4625665508572974 -2.2813207594242773 5.41665298245614
H -1.5625665508572975 -2.2813207594242773 5.41665298245614
H -2.7555778898687384 -1.430354041384892 5.41665298245614
O 0.5798556591780243 4.624305604564069 4.694430760233917
H 1.4798556591780243 4.624305604564069 4.694430760233917
H 0.2868443201665833 5.475272322603454 4.694430760233917
O 3.317250447555881 -3.9373859395551585 3.9722085380116954
H 4.217250447555881 -3.9373859395551585 3.9722085380116954
H 3.02423910854444 -3.086419221515773 3.9722085380116954
O -5.35630746772339 1.1262217112104893 3.249986315789474
H -4.45630746772339 1.1262217112104893 3.249986315789474
H -5.649318806734831 1.9771884292498745 3.249986315789474
O 5.239509627784966 3.3598383543082924 2.5277640935672507
H 6.139509627784967 3.3598383543082924 2.5277640935672507
H 4.946498288773525 4.210805072347678 2.5277640935672507
O -1.4342125182392031 -5.884390328571549 1.8055418713450286
H -0.5342125182392031 -5.884390328571549 1.8055418713450286
H -1.7272238572506442 -5.033423610532164 1.8055418713450286
O -2.767185616825219 5.833456437502125 1.0833196491228065
H -1.867185616825219 5.833456437502125 1.0833196491228065
H -3.06019695583666 6.68442315554151 1.0833196491228065
O 6.282966281821296 -2.080584716782539 0.3610974269005845
H 7.1829662818212965 -2.080584716782539 0.3610974269005845
H 5.989954942809855 -1.229617998743154 0.3610974269005845
O -5.812159623242989 -2.330563606008214 -0.36112479532163766
H -4.912159623242989 -2.330563606008214 -0.36112479532163766
H -6.10517096225443 -1.4795968879688288 -0.36112479532163766
O 2.9032729575247114 5.950651987754536 -1.0833470175438598
H 3.8032729575247113 5.950651987754536 -1.0833470175438598
H 2.6102616185132703 6.801618705793921 -1.0833470175438598
O 2.0555941020625603 -5.812263920843113 -1.8055692397660819
H 2.9555941020625602 -5.812263920843113 -1.8055692397660819
H 1.7625827630511193 -4.961297202803728 -1.8055692397660819
O -4.994380479726406 3.14832699827829 -2.527791461988304
H -4.094380479726405 3.14832699827829 -2.527791461988304
H -5.287391818737847 3.999293716317675 -2.527791461988304
O 5.684676544484756 1.3544138723333532 -3.250013684210528
H 6.584676544484756 1.3544138723333532 -3.250013684210528
H 5.3916652054733145 2.205380590372738 -3.250013684210528
O -2.772257359924187 -4.06324228942646 -3.972235906432749
H -1.8722573599241872 -4.06324228942646 -3.972235906432749
H -3.065268698935628 -3.2122755713870754 -3.972235906432749
O -0.3909506420316564 4.6042412346075725 -4.694458128654972
H 0.5090493579683436 4.6042412346075725 -4.694458128654972
H -0.6839619810430975 5.4552079526469575 -4.694458128654972
O 2.934198973640388 -2.1697818253268215 -5.4166803508771935
H 3.834198973640388 -2.1697818253268215 -5.4166803508771935
H 2.641187634628947 -1.3188151072874363 -5.4166803508771935
O -1.9477304644689095 0.05745291104445087 -6.138902573099416
H -1.0477304644689096 0.05745291104445087 -6.138902573099416
H -2.2407418034803506 0.908419629083836 -6.138902573099416



