%chk=Fe_3_OVWN5_3_6.chk
#p OVWN5 6-31+G(2df,p) scf=(maxcycles=500,xqc,maxconventional=50) scrf=(cpcm,solvent=water)

Fe_3_OVWN5_solvated_radius_4_solvated_radius_6

3 6
Fe         0.00000       -0.00000       -0.00004
O         -1.46369        0.91530       -1.23692
H         -2.41959        0.96595       -1.06623
O         -0.28148       -1.83760       -1.02660
H          0.17792       -2.67673       -0.85269
O          1.51289        0.54406       -1.38757
H          2.02963        1.36771       -1.39082
O          1.46374       -0.91565        1.23658
H          1.30932       -1.36585        2.08446
O          0.28160        1.83737        1.02698
H         -0.17976        2.67589        0.85526
O         -1.51301       -0.54346        1.38758
H         -2.03131       -1.36613        1.39002
H         -1.82291       -0.01827        2.14493
H         -0.89494       -2.00464       -1.76227
H         -1.30918        1.36563       -2.08471
H          0.89678        2.00469        1.76114
H          1.82414        0.01848       -2.14409
H          2.41954       -0.96688        1.06550
O 1.7984205054527964 -6.842105263179346e-06 4.125026842105263
H 2.6984205054527965 -6.842105263179346e-06 4.125026842105263
H 1.5054091664413554 0.850959875934122 4.125026842105263
O -2.1947728261926587 -2.0105835902158233 3.3750268421052634
H -1.2947728261926588 -2.0105835902158233 3.3750268421052634
H -2.4877841652040997 -1.1596168721764382 3.3750268421052634
O 0.3195288939338167 3.641046008231147 2.625026842105263
H 1.2195288939338167 3.641046008231147 2.625026842105263
H 0.02651755492237573 4.4920127262705325 2.625026842105263
O 2.4889653243762493 -3.246442640780165 1.8750268421052632
H 3.388965324376249 -3.246442640780165 1.8750268421052632
H 2.1959539853648082 -2.39547592274078 1.8750268421052632
O -4.290517611378553 0.7589224250523786 1.1250268421052632
H -3.3905176113785527 0.7589224250523786 1.1250268421052632
H -4.583528950389994 1.6098891430917637 1.1250268421052632
O 3.78367586623768 2.406868408435695 0.37502684210526344
H 4.68367586623768 2.406868408435695 0.37502684210526344
H 3.490664527226239 3.2578351264750802 0.37502684210526344
O -1.1641723038058351 -4.330609090703678 -0.3749731578947366
H -0.2641723038058351 -4.330609090703678 -0.3749731578947366
H -1.4571836428172762 -3.4796423726642933 -0.3749731578947366
O -2.008237200512461 3.866700268365147 -1.1249731578947364
H -1.1082372005124612 3.866700268365147 -1.1249731578947364
H -2.301248539523902 4.717666986404532 -1.1249731578947364
O 3.842528285990352 -1.403297967756929 -1.8749731578947375
H 4.742528285990352 -1.403297967756929 -1.8749731578947375
H 3.549516946978911 -0.5523312497175439 -1.8749731578947375
O -3.3785435804944597 -1.3946137837361479 -2.6249731578947357
H -2.4785435804944598 -1.3946137837361479 -2.6249731578947357
H -3.6715549195059007 -0.5436470656967627 -2.6249731578947357
O 1.26154866843398 2.6958842518711377 -3.3749731578947366
H 2.16154866843398 2.6958842518711377 -3.3749731578947366
H 0.968537329422539 3.5468509699105226 -3.3749731578947366
O 0.5382268060318381 -1.716010729575232 -4.124973157894737
H 1.4382268060318382 -1.716010729575232 -4.124973157894737
H 0.24521546702039715 -0.8650440115358469 -4.124973157894737
O 2.3231531696440104 0.14572801395853496 6.138915730994152
H 3.2231531696440103 0.14572801395853496 6.138915730994152
H 2.0301418306325694 0.9966947319979201 6.138915730994152
O -2.462582866646771 -2.2813154962663824 5.416693508771931
H -1.5625828666467712 -2.2813154962663824 5.416693508771931
H -2.755594205658212 -1.4303487782269972 5.416693508771931
O 0.5798393433885507 4.624310867721963 4.6944712865497085
H 1.4798393433885506 4.624310867721963 4.6944712865497085
H 0.2868280043771097 5.475277585761348 4.6944712865497085
O 3.317234131766407 -3.9373806763972636 3.9722490643274857
H 4.217234131766407 -3.9373806763972636 3.9722490643274857
H 3.024222792754966 -3.0864139583578787 3.9722490643274857
O -5.356323783512864 1.1262269743683841 3.2500268421052643
H -4.456323783512864 1.1262269743683841 3.2500268421052643
H -5.649335122524305 1.9771936924077693 3.2500268421052643
O 5.239493311995492 3.359843617466187 2.527804619883041
H 6.139493311995492 3.359843617466187 2.527804619883041
H 4.946481972984051 4.210810335505572 2.527804619883041
O -1.4342288340286768 -5.884385065413655 1.8055823976608192
H -0.5342288340286768 -5.884385065413655 1.8055823976608192
H -1.727240173040118 -5.03341834737427 1.8055823976608192
O -2.7672019326146926 5.83346170066002 1.083360175438597
H -1.8672019326146927 5.83346170066002 1.083360175438597
H -3.0602132716261337 6.6844284186994045 1.083360175438597
O 6.282949966031822 -2.0805794536246442 0.36113795321637504
H 7.182949966031822 -2.0805794536246442 0.36113795321637504
H 5.989938627020381 -1.229612735585259 0.36113795321637504
O -5.812175939032463 -2.330558342850319 -0.3610842690058471
H -4.912175939032463 -2.330558342850319 -0.3610842690058471
H -6.105187278043904 -1.479591624810934 -0.3610842690058471
O 2.9032566417352377 5.95065725091243 -1.0833064912280692
H 3.8032566417352376 5.95065725091243 -1.0833064912280692
H 2.6102453027237966 6.801623968951815 -1.0833064912280692
O 2.0555777862730866 -5.812258657685218 -1.8055287134502913
H 2.9555777862730865 -5.812258657685218 -1.8055287134502913
H 1.7625664472616456 -4.961291939645833 -1.8055287134502913
O -4.99439679551588 3.148332261436185 -2.527750935672514
H -4.0943967955158795 3.148332261436185 -2.527750935672514
H -5.287408134527321 3.9992989794755704 -2.527750935672514
O 5.684660228695281 1.354419135491248 -3.2499731578947375
H 6.584660228695282 1.354419135491248 -3.2499731578947375
H 5.39164888968384 2.2053858535306334 -3.2499731578947375
O -2.772273675713661 -4.063237026268566 -3.9721953801169585
H -1.8722736757136609 -4.063237026268566 -3.9721953801169585
H -3.065285014725102 -3.212270308229181 -3.9721953801169585
O -0.39096695782113 4.604246497765467 -4.694417602339181
H 0.50903304217887 4.604246497765467 -4.694417602339181
H -0.6839782968325709 5.455213215804852 -4.694417602339181
O 2.9341826578509145 -2.1697765621689267 -5.416639824561402
H 3.8341826578509144 -2.1697765621689267 -5.416639824561402
H 2.6411713188394734 -1.3188098441295415 -5.416639824561402
O -1.9477467802583832 0.05745817420234571 -6.138862046783625
H -1.0477467802583833 0.05745817420234571 -6.138862046783625
H -2.2407581192698243 0.9084248922417308 -6.138862046783625



