%chk=Fe_3_B97D_3_6.chk
#p B97D 6-31+G(2df,p) scf=(maxcycles=500,xqc,maxconventional=50) scrf=(cpcm,solvent=water)

Fe_3_B97D_solvated_radius_4_solvated_radius_6

3 6
Fe         0.00006        0.00001        0.00006
O         -0.25300        1.73732       -1.08385
H          0.29990        2.03930       -1.83204
O          1.23579        1.00110        1.31441
H          1.68060        0.61857        2.09704
O         -1.63323        0.48768        1.16266
H         -2.56356        0.24256        0.98632
O          0.25335       -1.73672        1.08477
H          0.94814       -2.41082        0.94495
O         -1.23557       -1.00070       -1.31486
H         -1.67763       -0.61847       -2.09919
O          1.63252       -0.48869       -1.16325
H          2.56296       -0.24267       -0.98881
H          1.61848       -1.00884       -1.99146
H          1.48513        1.94583        1.26970
H         -0.94820        2.41100       -0.94409
H         -1.48742       -1.94471       -1.26898
H         -1.62012        1.00587        1.99212
H         -0.29876       -2.03763        1.83397
O 1.7984073475580595 -5.263157894537591e-07 4.124972105263158
H 2.6984073475580597 -5.263157894537591e-07 4.124972105263158
H 1.5053960085466185 0.8509661917235957 4.124972105263158
O -2.1947859840873956 -2.0105772744263497 3.374972105263158
H -1.2947859840873956 -2.0105772744263497 3.374972105263158
H -2.4877973230988366 -1.1596105563869645 3.374972105263158
O 0.3195157360390799 3.6410523240206207 2.6249721052631574
H 1.2195157360390798 3.6410523240206207 2.6249721052631574
H 0.026504397027638904 4.492019042060006 2.6249721052631574
O 2.4889521664815124 -3.2464363249906913 1.8749721052631578
H 3.3889521664815123 -3.2464363249906913 1.8749721052631578
H 2.1959408274700714 -2.3954696069513064 1.8749721052631578
O -4.29053076927329 0.7589287408418522 1.1249721052631578
H -3.39053076927329 0.7589287408418522 1.1249721052631578
H -4.583542108284731 1.6098954588812373 1.1249721052631578
O 3.783662708342943 2.4068747242251685 0.37497210526315816
H 4.683662708342943 2.4068747242251685 0.37497210526315816
H 3.490651369331502 3.257841442264554 0.37497210526315816
O -1.164185461700572 -4.330602774914205 -0.3750278947368419
H -0.264185461700572 -4.330602774914205 -0.3750278947368419
H -1.457196800712013 -3.4796360568748197 -0.3750278947368419
O -2.008250358407198 3.8667065841546204 -1.1250278947368417
H -1.108250358407198 3.8667065841546204 -1.1250278947368417
H -2.301261697418639 4.717673302194005 -1.1250278947368417
O 3.842515128095615 -1.4032916519674552 -1.8750278947368428
H 4.742515128095615 -1.4032916519674552 -1.8750278947368428
H 3.549503789084174 -0.55232493392807 -1.8750278947368428
O -3.3785567383891966 -1.394607467946674 -2.6250278947368413
H -2.4785567383891967 -1.394607467946674 -2.6250278947368413
H -3.6715680774006376 -0.5436407499072888 -2.6250278947368413
O 1.2615355105392432 2.6958905676606113 -3.375027894736842
H 2.161535510539243 2.6958905676606113 -3.375027894736842
H 0.9685241715278021 3.5468572856999963 -3.375027894736842
O 0.5382136481371013 -1.7160044137857582 -4.125027894736842
H 1.4382136481371013 -1.7160044137857582 -4.125027894736842
H 0.24520230912566027 -0.865037695746373 -4.125027894736842
O 2.3231400117492735 0.1457343297480086 6.138860994152046
H 3.2231400117492734 0.1457343297480086 6.138860994152046
H 2.0301286727378325 0.9967010477873938 6.138860994152046
O -2.462596024541508 -2.281309180476909 5.416638771929825
H -1.562596024541508 -2.281309180476909 5.416638771929825
H -2.755607363552949 -1.4303424624375236 5.416638771929825
O 0.5798261854938137 4.624317183511437 4.6944165497076025
H 1.4798261854938137 4.624317183511437 4.6944165497076025
H 0.2868148464823727 5.475283901550822 4.6944165497076025
O 3.3172209738716703 -3.93737436060779 3.97219432748538
H 4.217220973871671 -3.93737436060779 3.97219432748538
H 3.024209634860229 -3.086407642568405 3.97219432748538
O -5.3563369414076005 1.1262332901578578 3.2499721052631587
H -4.4563369414076 1.1262332901578578 3.2499721052631587
H -5.649348280419042 1.977200008197243 3.2499721052631587
O 5.239480154100756 3.359849933255661 2.5277498830409355
H 6.139480154100756 3.359849933255661 2.5277498830409355
H 4.946468815089315 4.210816651295046 2.5277498830409355
O -1.4342419919234137 -5.884378749624181 1.8055276608187134
H -0.5342419919234137 -5.884378749624181 1.8055276608187134
H -1.7272533309348548 -5.033412031584796 1.8055276608187134
O -2.7672150905094295 5.833468016449493 1.0833054385964913
H -1.8672150905094296 5.833468016449493 1.0833054385964913
H -3.0602264295208705 6.684434734488878 1.0833054385964913
O 6.2829368081370855 -2.0805731378351706 0.3610832163742694
H 7.182936808137086 -2.0805731378351706 0.3610832163742694
H 5.9899254691256445 -1.2296064197957854 0.3610832163742694
O -5.8121890969272 -2.3305520270608455 -0.3611390058479528
H -4.912189096927199 -2.3305520270608455 -0.3611390058479528
H -6.105200435938641 -1.4795853090214603 -0.3611390058479528
O 2.903243483840501 5.950663566701904 -1.083361228070175
H 3.8032434838405007 5.950663566701904 -1.083361228070175
H 2.6102321448290597 6.801630284741289 -1.083361228070175
O 2.0555646283783497 -5.812252341895745 -1.805583450292397
H 2.9555646283783497 -5.812252341895745 -1.805583450292397
H 1.7625532893669087 -4.96128562385636 -1.805583450292397
O -4.994409953410616 3.1483385772256587 -2.5278056725146194
H -4.094409953410616 3.1483385772256587 -2.5278056725146194
H -5.287421292422057 3.999305295265044 -2.5278056725146194
O 5.684647070800545 1.3544254512807217 -3.250027894736843
H 6.584647070800545 1.3544254512807217 -3.250027894736843
H 5.391635731789104 2.205392169320107 -3.250027894736843
O -2.7722868336083977 -4.063230710479092 -3.972250116959064
H -1.8722868336083978 -4.063230710479092 -3.972250116959064
H -3.0652981726198387 -3.2122639924397074 -3.972250116959064
O -0.390980115715867 4.6042528135549405 -4.694472339181287
H 0.509019884284133 4.6042528135549405 -4.694472339181287
H -0.683991454727308 5.4552195315943255 -4.694472339181287
O 2.9341694999561776 -2.169770246379453 -5.416694561403508
H 3.8341694999561775 -2.169770246379453 -5.416694561403508
H 2.6411581609447365 -1.3188035283400679 -5.416694561403508
O -1.94775993815312 0.05746448999181934 -6.138916783625731
H -1.0477599381531202 0.05746448999181934 -6.138916783625731
H -2.240771277164561 0.9084312080312045 -6.138916783625731



