%chk=Fe_3_M06_3_6.chk
#p M06 6-31+G(2df,p) empiricaldispersion=gd3 scf=(maxcycles=500,xqc,maxconventional=50) scrf=(cpcm,solvent=water)

Fe_3_M06_solvated_radius_4_solvated_radius_6

3 6
Fe        -0.00015       -0.00008        0.00001
O         -1.33519       -1.52782        0.06386
H         -2.30651       -1.45299        0.01375
O         -0.09262        0.16698        2.02082
H          0.39858        0.80306        2.57370
O          1.52546       -1.32731        0.17926
H          1.99954       -1.76931       -0.54980
O          1.33597        1.52704       -0.06407
H          1.12955        2.47638       -0.15185
O          0.09337       -0.16478       -2.02094
H         -0.39250       -0.80374       -2.57520
O         -1.52665        1.32602       -0.17892
H         -1.99641        1.77283        0.54990
H         -1.93076        1.63768       -1.01029
H         -0.63662       -0.37280        2.62436
H         -1.12771       -2.47704        0.15054
H          0.63288        0.38082       -2.62327
H          1.92388       -1.64523        1.01101
H          2.30716        1.45126       -0.01304
O 1.7985036633475333 5.105263157891954e-05 4.124991052631579
H 2.6985036633475334 5.105263157891954e-05 4.124991052631579
H 1.5054923243360923 0.8510177706709641 4.124991052631579
O -2.194689668297922 -2.010525695478981 3.374991052631579
H -1.2946896682979219 -2.010525695478981 3.374991052631579
H -2.487701007309363 -1.1595589774395958 3.374991052631579
O 0.31961205182855357 3.6411039029679895 2.6249910526315787
H 1.2196120518285536 3.6411039029679895 2.6249910526315787
H 0.02660071281711257 4.492070621007374 2.6249910526315787
O 2.489048482270986 -3.2463847460433226 1.874991052631579
H 3.389048482270986 -3.2463847460433226 1.874991052631579
H 2.196037143259545 -2.395418028003937 1.874991052631579
O -4.290434453483816 0.7589803197892206 1.124991052631579
H -3.3904344534838162 0.7589803197892206 1.124991052631579
H -4.583445792495257 1.6099470378286058 1.124991052631579
O 3.783759024132417 2.406926303172537 0.3749910526315793
H 4.683759024132417 2.406926303172537 0.3749910526315793
H 3.4907476851209758 3.257893021211922 0.3749910526315793
O -1.1640891459110982 -4.330551195966836 -0.3750089473684208
H -0.2640891459110982 -4.330551195966836 -0.3750089473684208
H -1.4571004849225393 -3.4795844779274514 -0.3750089473684208
O -2.0081540426177242 3.866758163101989 -1.1250089473684206
H -1.1081540426177243 3.866758163101989 -1.1250089473684206
H -2.3011653816291653 4.717724881141375 -1.1250089473684206
O 3.842611443885089 -1.403240073020087 -1.8750089473684217
H 4.742611443885089 -1.403240073020087 -1.8750089473684217
H 3.549600104873648 -0.5522733549807017 -1.8750089473684217
O -3.378460422599723 -1.3945558889993057 -2.62500894736842
H -2.478460422599723 -1.3945558889993057 -2.62500894736842
H -3.671471761611164 -0.5435891709599205 -2.62500894736842
O 1.261631826328717 2.69594214660798 -3.375008947368421
H 2.161631826328717 2.69594214660798 -3.375008947368421
H 0.9686204873172759 3.5469088646473654 -3.375008947368421
O 0.538309963926575 -1.71595283483839 -4.125008947368421
H 1.438309963926575 -1.71595283483839 -4.125008947368421
H 0.24529862491513404 -0.8649861167990047 -4.125008947368421
O 2.3232363275387473 0.14578590869537705 6.138879941520467
H 3.2232363275387472 0.14578590869537705 6.138879941520467
H 2.0302249885273063 0.9967526267347622 6.138879941520467
O -2.462499708752034 -2.28125760152954 5.416657719298246
H -1.5624997087520343 -2.28125760152954 5.416657719298246
H -2.755511047763475 -1.4302908834901549 5.416657719298246
O 0.5799225012832875 4.624368762458805 4.694435497076023
H 1.4799225012832875 4.624368762458805 4.694435497076023
H 0.2869111622718465 5.47533548049819 4.694435497076023
O 3.317317289661144 -3.9373227816604213 3.972213274853801
H 4.217317289661144 -3.9373227816604213 3.972213274853801
H 3.024305950649703 -3.086356063621036 3.972213274853801
O -5.356240625618127 1.1262848691052263 3.2499910526315796
H -4.456240625618126 1.1262848691052263 3.2499910526315796
H -5.649251964629568 1.9772515871446115 3.2499910526315796
O 5.239576469890229 3.3599015122030296 2.5277688304093564
H 6.13957646989023 3.3599015122030296 2.5277688304093564
H 4.946565130878788 4.210868230242415 2.5277688304093564
O -1.43414567613394 -5.884327170676813 1.8055466081871345
H -0.5341456761339399 -5.884327170676813 1.8055466081871345
H -1.727157015145381 -5.033360452637428 1.8055466081871345
O -2.7671187747199557 5.8335195953968615 1.0833243859649124
H -1.8671187747199558 5.8335195953968615 1.0833243859649124
H -3.0601301137313968 6.684486313436246 1.0833243859649124
O 6.283033123926559 -2.080521558887802 0.36110216374269033
H 7.18303312392656 -2.080521558887802 0.36110216374269033
H 5.990021784915118 -1.2295548408484167 0.36110216374269033
O -5.812092781137726 -2.330500448113477 -0.3611200584795318
H -4.9120927811377255 -2.330500448113477 -0.3611200584795318
H -6.105104120149167 -1.4795337300740916 -0.3611200584795318
O 2.9033397996299746 5.950715145649272 -1.0833422807017539
H 3.8033397996299745 5.950715145649272 -1.0833422807017539
H 2.6103284606185335 6.801681863688657 -1.0833422807017539
O 2.0556609441678235 -5.812200762948376 -1.805564502923976
H 2.9556609441678234 -5.812200762948376 -1.805564502923976
H 1.7626496051563825 -4.961234044908991 -1.805564502923976
O -4.9943136376211426 3.1483901561730274 -2.5277867251461985
H -4.094313637621142 3.1483901561730274 -2.5277867251461985
H -5.287324976632584 3.9993568742124124 -2.5277867251461985
O 5.684743386590019 1.3544770302280902 -3.250008947368422
H 6.584743386590019 1.3544770302280902 -3.250008947368422
H 5.391732047578578 2.2054437482674754 -3.250008947368422
O -2.772190517818924 -4.063179131531724 -3.972231169590643
H -1.872190517818924 -4.063179131531724 -3.972231169590643
H -3.065201856830365 -3.212212413492339 -3.972231169590643
O -0.3908837999263932 4.604304392502309 -4.694453391812866
H 0.5091162000736068 4.604304392502309 -4.694453391812866
H -0.6838951389378343 5.455271110541694 -4.694453391812866
O 2.9342658157456514 -2.1697186674320843 -5.416675614035087
H 3.8342658157456513 -2.1697186674320843 -5.416675614035087
H 2.6412544767342103 -1.3187519493926991 -5.416675614035087
O -1.9476636223636463 0.0575160689391878 -6.13889783625731
H -1.0476636223636464 0.0575160689391878 -6.13889783625731
H -2.2406749613750874 0.908482786978573 -6.13889783625731



