%chk=Fe_6H2O_M06-L_3_6.chk
#p M06L 6-31+G(2df,p) scf=(maxcycles=500,xqc,maxconventional=50) scrf=(cpcm,solvent=water)

Fe_6H2O_3_6

3 6
Fe          -0.78006553251855        0.70984857027475        0.02349579389128
O           -1.57251117232866        2.75183936843688        0.21107536799871
H           -1.98142433462814        3.30315860462223       -0.46954483138419
O            1.18822857603172        1.67337799026996       -0.19541411496755
H            2.04750679301265        1.25387209423000       -0.33499722366048
O           -0.42068789468141        0.82837796993632        2.19084792107342
H           -0.98957989705712        0.51720418316258        2.90743755858488
O           -0.73718995829567       -1.42688075673182        0.54549886604068
H           -1.46678129942004       -2.05783750803188        0.48544880458623
O           -2.87608405580398        0.38150592782843       -0.55297953787835
H           -3.20966366503934        0.09301504835470       -1.41298038028704
O           -0.28942878530585        0.06905940301953       -2.02165113801018
H           -0.16529831577100        0.61540612050945       -2.80947156155758
H           -0.08455116085088       -0.83079268857008       -2.30846365725355
H            1.36541090118822        2.62219261615257       -0.24406353258009
H           -1.63902278689046        3.26729412722004        1.02556576980787
H           -3.66631694795816        0.54847867385952       -0.02255025858447
H            0.38172509777689        1.14514036231812        2.62615419620192
H           -0.01578313148194       -1.91818033687159        0.96063736797501



