%chk=Fe_6H2O_UHF_2_5.chk
#p UHF 6-31+G(2df,p) scf=(maxcycles=500,xqc,maxconventional=50) scrf=(cpcm,solvent=water)

Fe_6H2O_2_5

2 5
Fe          -0.78714451487387        0.71226915520398        0.03207710247639
O           -1.52333927971102        2.92215141551448        0.01280207218086
H           -1.85803704776679        3.46944768441139       -0.70169462990760
O            1.38277184622495        1.56218460645010       -0.03432293156127
H            2.21465479417314        1.10275165142833       -0.17098902385176
O           -0.61198496101904        0.94253732671292        2.34183063740006
H           -1.18134772101367        0.64886291424152        3.05723288429415
O           -0.53029947952301       -1.56773394019058        0.43436611190656
H           -1.28388732854830       -2.16279508672166        0.45084560882895
O           -3.03112173650222        0.21474561396913       -0.34773464130743
H           -3.36059218300885        0.01171864144668       -1.22650534093683
O           -0.39925425976000        0.19378613988181       -2.20482513181184
H           -0.30100301045325        0.76181215069939       -2.97261226444427
H           -0.15032242656398       -0.69107456639008       -2.48288533500111
H            1.56273258089868        2.49789081737580       -0.15355313265552
H           -1.68480075902623        3.40356849361214        0.82793362835715
H           -3.80024069264224        0.36643161446758        0.20674565692535
H            0.21738019212729        1.21397698791594        2.74257076722585
H            0.21431841697721       -2.05645185002276        0.79276337188855



