%chk=salicylate_solvated_2_optimized_Oxidized_Structure.chk
#p B3LYP empiricaldispersion=gd3 scrf=(cpcm,solvent=water) scf=(maxcycles=500,xqc,maxconventional=1000) 6-31+G(2df,p)

Oxidized_Structure

-3 2
C            3.61211999858166        4.19700000193643       -0.92139000445148
C            3.81125998960366        3.16908000229584       -1.86416000030210
C            3.08275000419700        1.99525000137809       -1.78379000186714
C            2.08927000164203        1.74327999911481       -0.75649000945574
C            1.90261999896834        2.81188000178835        0.21380999840577
C            2.66145000057887        3.97670999220515        0.08889000111686
C            0.91616000220563        2.72253999687229        1.38254000833714
O            0.19890999821467        1.69063000293712        1.50181000082089
O            0.88028000066852        3.70976000848015        2.17590999769651
O            1.47522000037744        0.63457000126323       -0.78169000067700
H            4.17848999903817        5.12804999946603       -0.96844000108557
H            4.54611000358843        3.29425000055397       -2.66620999656080
H            3.22696000032858        1.19115999370665       -2.50296999825736
H            2.47714000110474        4.73667999868726        0.84501000686887
Fe          -0.01290999992686        0.00671999917130        0.38780999988219
C            1.92154000318205       -5.18412000177836       -0.91306000015806
C            0.92414000339074       -4.86708999949830       -1.85661000988974
C            0.23486000286716       -3.67037000520930       -1.77053000689039
C            0.48217000344832       -2.68124000503762       -0.73814999684255
C            1.50719000024408       -3.03004999404591        0.23471000886674
C            2.17375000800888       -4.24941000221863        0.10437002362656
C            1.88730000355158       -2.12889000644115        1.41365999407453
O            1.33116999685547       -1.00167999809764        1.52811999996345
O            2.75344999942543       -2.58055000341572        2.22084000056939
O           -0.20102000193392       -1.61346000029725       -0.75992999923181
H            2.47516999956401       -6.12265000076429       -0.96582999885156
H            0.68969999988458       -5.56820000015567       -2.66436999707484
H           -0.53880000182386       -3.41154999987927       -2.49134999475155
H            2.92675000054794       -4.45269000017108        0.86288000396831
C           -5.46908000006857        0.94358999856639       -0.93594000689217
C           -4.68945000192444        1.61955000004940       -1.89556000533183
C           -3.30842000248301        1.60536999843806       -1.81082000113196
C           -2.58172000013601        0.91304000083311       -0.76306000278302
C           -3.40287000061652        0.22712999696948        0.22407999560169
C           -4.79195999873687        0.27218999955893        0.09489000039492
C           -2.81975000280041       -0.53948000233481        1.41506000241550
O           -1.56597000129772       -0.63306000012353        1.52913999997571
O           -3.64837000463292       -1.04349000072242        2.23031999826054
O           -1.31498999946500        0.95993999993579       -0.78537999986697
H           -6.55895999996519        0.94601000025464       -0.98578999990238
H           -5.17431999982348        2.16042000065372       -2.71490000234985
H           -2.69262999939147        2.12349999892347       -2.54404000062249
H           -5.34937000044234       -0.25678000036740        0.86515999931533
O            0.24169905757570        0.64109169168327        6.03751947008493
H            0.93428868097161        0.02791532035417        5.77626819063213
H           -0.25118947265221        0.82448028390840        5.20871882743661
O           -2.25178110054339       -3.69857689029075        7.03247695507319
H           -1.30751087198563       -3.84804304546333        6.92410963328079
H           -2.50983384154965       -3.06572897478810        6.35625049709775
O            2.39794962217882        5.91431587712304        6.67634572536503
H            1.93071258626672        5.08388659067328        6.81107042021651
H            2.29513536467779        6.13985825795170        5.74723463209284
O            2.73564037738122       -4.13158291373669        4.38308685811246
H            3.44408135081221       -3.72491993713748        4.89301033994002
H            2.66596262592549       -3.58031223202371        3.56910371093925
O           -5.04817268518608        1.39204424396659        7.07691654611427
H           -4.24963830616820        1.88830467255705        7.28274600123610
H           -4.88778523331728        0.94191568814230        6.24294966017441
O            5.45329895908099        1.79862304055874        4.34294898192960
H            4.92197112262206        1.15661428615325        3.86377586422651
H            4.99693937805745        2.64208755473503        4.26627071345756
O           -1.93966483293043       -6.90266390018570        3.10702783152321
H           -1.33394220623771       -6.19612775287366        2.86738504084564
H           -2.79086835938903       -6.48997122845824        3.28261763414616
O           -1.43543395968587        3.85298578434731        3.45538115342438
H           -1.57266647507513        2.90886579733132        3.62901650216775
H           -0.55842025080658        3.86592825745108        2.97789629101666
O            8.28103340395954       -2.65887417723141        3.00923720796587
H            8.47288902211712       -1.76317643769414        3.30503869541886
H            7.36985722189408       -2.66378015898952        2.70390557606425
O           -5.53860212128656       -2.93744112427821        2.21079711718836
H           -4.81113298718301       -2.27855710800169        2.15335038494459
H           -5.85851636582315       -2.87705508381951        3.11713990815811
O            1.83744266857331       10.00067979021089        0.94525506540873
H            2.65973624617252        9.93254323369191        1.44086611019340
H            1.39320578633608        9.15124620221997        1.01975999759167
O            2.65895456053185       -9.50508618880061        3.52210050802126
H            2.64096800788913       -8.56806523502325        3.30838992253737
H            1.75270540901886       -9.82530956157141        3.47032232733886
O           -1.03345452935764        1.02189046962964        3.65573865964168
H           -1.38373018061205        0.22255574674931        3.22460395037542
H           -0.46214217644042        1.35041166313253        2.88480530739883
O            8.84225307184882        1.74633029030916       -0.00800096160586
H            7.95708333746019        1.83469927108896        0.35582814766794
H            8.74489790684047        1.42365208798062       -0.90931693440954
O           -4.71256060890268       -6.88027633584698       -1.33112988013735
H           -3.88146899773373       -6.40589903635369       -1.23881682482755
H           -5.36664390972151       -6.39969034439140       -0.81453258008010
O           -1.67731794158040        6.73820418497798       -1.69684566622349
H           -1.73460944735151        6.22715966373602       -0.88450525255349
H           -0.92914497711325        6.38901569129478       -2.19033864047846
O            6.87031295222989       -2.70849354388639       -2.31127744548884
H            6.88468102408070       -3.56043366417698       -1.86365612728795
H            6.07506185285981       -2.25470521874764       -2.01896929267826
O           -5.59344020663931       -1.54635180071793       -2.73994689681955
H           -5.51294765320185       -0.78615258768427       -2.13968451794944
H           -4.83162161679992       -2.10274531347118       -2.55409330474279
O            5.05871861006820        5.27178250072958       -7.68946021087414
H            4.63858724326497        4.87151045045597       -6.92324350173390
H            5.35492743128475        4.55437703718466       -8.25916393596042
O           -1.83057377862923       -5.44550016956367       -7.17097537904100
H           -1.05866698197837       -4.97783542455208       -6.83866648948905
H           -2.58770327975847       -5.13358313131674       -6.66608493912930
O           -3.14911966148009        4.78748692347262       -6.90272086127169
H           -3.12428249126106        3.82641056831154       -6.86437840277242
H           -3.25882381378861        5.10242981940332       -6.00074972035870
O            5.26916816786158        0.02230410663173       -7.02066387541033
H            5.71372420993718       -0.10715184247693       -6.17766680653994
H            4.33137963165192       -0.13127735857483       -6.87112941878502
O           -0.40492601310640       -0.21733066493736       -6.15668165816951
H            0.01238182369592       -0.06041782988082       -5.30459739224313
H           -1.33338234714020       -0.39340576138241       -5.97558998383613
O            1.22486205990949        2.90280142123391      -10.01513120172071
H            1.02901530713856        1.96261943887172      -10.07612692036383
H            0.88205089719464        3.20678314370817       -9.16938523017745
O            3.86934655000173        1.62264885274691        9.76213171693120
H            4.07185581952963        1.32143574098649        8.87142518294130
H            2.91082582321710        1.67388662139223        9.82807656083987
O           -4.90944907966331       -1.76012481910010       11.62727441446325
H           -4.21540437665183       -1.99016774868128       11.00212682965247
H           -5.46708551757355       -1.10294220133222       11.19884495288986
O            2.21889575189075        8.09408287683115        8.50441608481084
H            2.40126520411161        7.33570475963229        7.92655998336100
H            1.26156470340808        8.19122372524269        8.51274753406440
O            3.38607628555815       -7.83664955864466        8.62230689623310
H            3.71196797831139       -8.61057890301752        8.15108175458997
H            3.11414582848091       -7.19720990742778        7.95741456192673
O           -7.67204185978305        1.90536100074087        8.13398037139222
H           -6.77852005484044        1.68685188736420        7.82800856315809
H           -7.99423687137320        2.59000445767178        7.53942338228598
O            7.45929214917402        5.25820328708738        8.38608112270138
H            7.36428925338401        4.43668931466421        7.89467159602994
H            6.60849846374351        5.43651324557483        8.79965193515969
O           -1.94877860954289       -9.21742652120056        7.74017957417741
H           -1.12085729253760       -9.11243695933906        7.26121499200131
H           -2.42070445295716       -8.38210988067350        7.66905730046818
O           -2.47675152356403        5.86067373008027        5.07652960187110
H           -2.03168358530924        5.18639069042428        4.53170430594653
H           -3.41347867869610        5.77675340410389        4.87260026865689
O           11.11754590798248       -4.32513482919317        7.08195174909696
H           11.40417550087509       -4.23579792653674        6.16742263046277
H           10.18330638884086       -4.09739211304301        7.10633295958658
O           -7.87240221625654       -3.69576663988441        7.41886013642265
H           -6.94428669711503       -3.80691616940059        7.64697817450133
H           -8.07697281453389       -2.76082718869391        7.52091227133724
O            6.00703904409675        9.20820594463970        4.67997596852374
H            6.32975477598737        8.41794937927327        5.12414345247135
H            5.40236281323271        9.64226081820397        5.29042024122335
O            5.03201609678731      -11.01539756793168        4.12389248457311
H            5.41564534464305      -11.11324781920405        3.24670747511004
H            4.21203644988676      -10.51401457570631        3.99959499857627
O           -7.73096825872329        4.21501883287539        3.14585394405477
H           -7.03590935606365        3.56518798045535        3.00938248285027
H           -7.81377947418418        4.71534978816171        2.32779603151793
O           12.89304722550260        2.65727410312976        3.09568476499204
H           12.90455533935489        2.63387710282041        2.13354475481173
H           11.97561825050806        2.77143976679939        3.36160978689437
O           -6.74691486380440       -9.92613942920221        2.63916434855641
H           -5.83875314775857       -9.84443624000791        2.33191338190885
H           -7.01202349138651       -9.06114209491569        2.96645205282835
O           -3.64110626778708       10.80768662131983        0.73932670681631
H           -3.52857947193725       10.00213046989568        1.25276611336532
H           -2.85140531665770       10.90639576737800        0.19801780800484
O            7.44897167725647       -7.41143036481491        0.86932421876952
H            8.17442192150681       -7.10231349409057        1.42179302493859
H            6.63642092627689       -7.08048553785859        1.26257973061543
O          -10.42472295424741       -1.22731152286546        1.19878135870029
H           -9.83480404270560       -1.81811991743616        0.72073525054998
H           -9.88362643312339       -0.74099413909164        1.82811854617135
O            8.59119188288411        7.47278235611996       -0.02553056701406
H            8.46657221030386        6.53301622880524        0.13785012723042
H            8.09358108079907        7.94539813568892        0.64911593678126
O           -0.87415380680980      -10.50298928000641       -0.47540281896450
H           -0.51962417190003       -9.61700501331014       -0.59387455661607
H           -1.76862742405069      -10.40312718134144       -0.13407561602329
O           -6.99987294299689        7.13823425583243       -1.82950620952417
H           -6.34308234908858        6.44365767108255       -1.72691004251464
H           -6.53107527281963        7.97697857541390       -1.76583499818763
O           12.22657903469042       -2.31514870285465       -0.32252306957374
H           12.12935662565109       -1.64988938533894        0.36623722960170
H           11.34397472686956       -2.50380829064595       -0.65562597206520
O           -8.80956597239848       -5.72591645700573       -4.68994127742756
H           -8.21378788407467       -6.46070077708203       -4.51186312185391
H           -8.39083609009332       -4.93316168992705       -4.34137846044770
O            2.07007092877236       10.76994007729719       -4.67938548238605
H            2.83410707540281       10.26597113482656       -4.97723796193367
H            1.93488850728046       10.55717018019159       -3.75105985302850
O            6.28448646896752       -7.75592405346761       -4.57021103055771
H            6.85499712047624       -7.89826515325908       -3.80797200871931
H            5.49964997781768       -7.29930731505894       -4.25358341355360
O           -9.52779441953904        2.22607728382041       -5.23173920465596
H           -9.35633278072415        1.48936605286154       -4.63729510540757
H           -9.20825298584011        3.02160589874920       -4.79491745971368
O           10.38544379757125        6.63908326269791       -5.35263406641615
H            9.94316439744726        6.71546942854773       -4.50150690392345
H            9.74507457250161        6.89187197725273       -6.02556419376022
O           -4.56691923445172      -10.14223129446746       -5.84218122616240
H           -3.81991034126777       -9.64577092838835       -6.19095984891005
H           -4.71122672073364       -9.83603775971564       -4.94146980748374
O           -2.34913178447394       10.27128791177511       -8.12420695628351
H           -2.45842486593862        9.32525652269729       -7.98625746502313
H           -1.67242392721173       10.56878560999255       -7.50780758936166
O            9.35236703628559       -3.79982420631401       -7.22037084434805
H            9.14553996564099       -3.91427251101896       -6.28766034861418
H            8.54821677209638       -3.49249203832945       -7.65045565241944
O           -5.66149163672234       -0.00159030668861       -8.08613463632802
H           -5.82241535181031       -0.29801264896915       -7.18547979882729
H           -6.37845723716747        0.59774550402434       -8.31721828066983
O            5.64255508625976        8.04994821311505       -8.07644649230276
H            5.50321941836543        7.10939431591979       -7.88612193528760
H            4.98924665407266        8.28129050915794       -8.74428668508651
O            0.88414265291992       -7.16141033368779      -11.33784078467544
H            1.21237759302202       -7.00736597520571      -10.44680533135710
H           -0.00941569915215       -6.80511614525139      -11.37258995952091
O           -3.68347705109959        4.20805989793647      -12.40935177680496
H           -2.77909212411844        3.89455406284414      -12.30841749339238
H           -3.99683226894698        4.44528879342088      -11.53105259691651
O            6.19159015753882        1.75496300202491      -12.24562043985411
H            6.31521965509665        1.21589911984410      -11.45815102960571
H            5.28194732887327        2.06927016782747      -12.23081325514543
O           -1.62517107198005       -1.81460428379070      -11.34158182804459
H           -1.30637788938134       -2.05022999077877      -10.46504669844310
H           -2.51831201847789       -1.47318933852956      -11.23149165567470


