%chk=salicylate_solvated_3_optimized_Oxidized_Structure.chk
#p B3LYP empiricaldispersion=gd3 scrf=(cpcm,solvent=water) scf=(maxcycles=500,xqc,maxconventional=1000) 6-31+G(2df,p)

Oxidized_Structure

-3 2
C            3.61211999747193        4.19699999117031       -0.92138998324929
C            3.81125997161433        3.16907999219375       -1.86416000700852
C            3.08275000638756        1.99524999411145       -1.78378997919222
C            2.08927000719276        1.74328001102615       -0.75649002924925
C            1.90261999787226        2.81188000946757        0.21380997859495
C            2.66144999710719        3.97670998226010        0.08888999328543
C            0.91616000990783        2.72253999441909        1.38253999614561
O            0.19890999873192        1.69063001426190        1.50180999858857
O            0.88027999349074        3.70976001202326        2.17591000026797
O            1.47521999884872        0.63456999929008       -0.78169000161916
H            4.17849000453983        5.12804999977699       -0.96843999397225
H            4.54611001419674        3.29424999985486       -2.66621000381958
H            3.22696000478549        1.19115999586400       -2.50296999060077
H            2.47714000424347        4.73667999748758        0.84501000350572
Fe          -0.01291000097116        0.00672000017018        0.38781000085261
C            1.92153999388287       -5.18412000604105       -0.91305999557838
C            0.92414001368226       -4.86709001030602       -1.85661000565562
C            0.23485998518207       -3.67037000415207       -1.77053000630559
C            0.48216999912189       -2.68123999660470       -0.73815000982222
C            1.50718999579670       -3.03004999362876        0.23471001556530
C            2.17375001016280       -4.24941000436991        0.10437000788258
C            1.88729999554884       -2.12889001531505        1.41365999831853
O            1.33116999829121       -1.00167998809098        1.52811999947668
O            2.75344999757716       -2.58055000056008        2.22084000660662
O           -0.20102000835948       -1.61346000427820       -0.75993000152943
H            2.47516999962426       -6.12265000120767       -0.96583000042780
H            0.68969999596733       -5.56820000053030       -2.66436998702627
H           -0.53879999976610       -3.41154999869326       -2.49134999249723
H            2.92674999572313       -4.45269000021830        0.86288000143938
C           -5.46907999847220        0.94358999267535       -0.93594001679039
C           -4.68945002251867        1.61954999618821       -1.89556002543747
C           -3.30842000281019        1.60536998343262       -1.81081999365205
C           -2.58171999365912        0.91304000359366       -0.76306000917283
C           -3.40287000441761        0.22712999169524        0.22407999684266
C           -4.79196000463550        0.27219000270035        0.09488999891688
C           -2.81974999057975       -0.53947997142631        1.41505998530101
O           -1.56597000055688       -0.63305999963939        1.52913999716008
O           -3.64836999877529       -1.04349000669937        2.23031999304254
O           -1.31498999394982        0.95994000105437       -0.78538000124959
H           -6.55896000237285        0.94600999932742       -0.98579000288327
H           -5.17431999665887        2.16041999771204       -2.71489998464299
H           -2.69262999852155        2.12349999685859       -2.54404000149666
H           -5.34936999835695       -0.25678001196431        0.86515999146284
O            0.35025567067580        0.55033361152571        6.03738530368990
H            1.04451516586906       -0.06126426319204        5.77747843985052
H           -0.14887256558210        0.72554991074855        5.21080773915230
O           -2.32163842842402       -3.65269529708176        7.09870396457613
H           -1.37004862355009       -3.79126072623026        7.12241406317006
H           -2.49968640565317       -3.07859602436298        6.34870063865748
O            2.28359408527893        5.72811663962408        6.95791034908617
H            1.75924858081851        4.93712429818351        7.11518355649659
H            2.21984463618285        5.92068408019417        6.01799003817277
O            2.75004597665645       -4.22864107191561        4.31802973550595
H            3.53105552010593       -3.91694183216060        4.78726561463999
H            2.67468089328849       -3.63799428975787        3.53354143630933
O           -4.90025525380066        1.29998888124524        7.15871367205424
H           -4.05435436134311        1.70573628560134        7.37258798708004
H           -4.82021842656577        0.93324582254849        6.27393858218899
O            5.48981749433810        1.77178086205111        4.27839894454525
H            4.97650680100034        1.12433797837050        3.78754268771807
H            4.99504997923605        2.59623914024710        4.24478172647672
O           -1.70690821223761       -7.03039637266793        3.23544598520571
H           -1.15934933195497       -6.30653430684767        2.92100988555414
H           -2.56209191518045       -6.65086895265736        3.45915376049986
O           -1.41989261229470        3.75455372788741        3.48040766463429
H           -1.52299712156074        2.80432140548127        3.64529048422429
H           -0.54854045676145        3.80348856823330        2.99280143858449
O            8.29634073396114       -2.74682016922424        2.80169480732597
H            8.39752452051850       -1.96692900174226        3.35652407232257
H            7.38136177969418       -2.76734101563502        2.50872901271246
O           -5.38527905259732       -3.08071752163079        2.26180990288005
H           -4.70443289399812       -2.37609471502772        2.19203207592295
H           -5.80451666989543       -2.93941698704856        3.11710295402613
O            1.31077307976387        9.82885581346807        1.82417867174222
H            1.97967934532425       10.00578954330886        2.49353650793702
H            1.08080954247508        8.89811486552099        1.89396444556772
O            2.95979082534835       -9.57752591243240        2.88895423761912
H            2.78323740160842       -8.64158494397808        2.76501666612018
H            2.10842938598402      -10.02345631281735        2.94684191678941
O           -0.95502004851412        0.93532158398066        3.67107416451711
H           -1.31203964583324        0.15181974960841        3.21350771749234
H           -0.40449241107911        1.29281338732221        2.90114228454631
O            8.64581842619082        1.35759240910866       -0.26320332151393
H            7.76012045534215        1.22979178927782        0.08577161044233
H            8.55383986747159        1.53458313637525       -1.20470115726557
O           -4.68807651396708       -6.83853998041359       -1.15485384649242
H           -3.95505494183688       -6.26753844939109       -0.90938265291775
H           -5.49711559754369       -6.34856441936014       -0.97799523961450
O           -1.53756170472263        6.76195773466581       -1.81750249237661
H           -1.59538925547120        6.26424611353501       -0.99736540974550
H           -0.89101795126128        6.30943348282913       -2.36734406997167
O            6.91761902741686       -2.68746822435393       -2.67925050654529
H            7.34082112845009       -3.33674434829820       -2.10815603246297
H            6.08995724213604       -2.43950103723756       -2.25911305351180
O           -5.61561998371020       -1.60721558145783       -2.64237849622653
H           -5.52577887151430       -0.84392233806685       -2.04759846373663
H           -4.76403329558865       -2.05256671436896       -2.62053754964618
O            2.76415129081161        4.13111840823565       -7.09596866206491
H            2.12164202383584        3.67544225563134       -6.54469508084818
H            3.47027690418592        3.50493727841769       -7.28612896841960
O           -3.21102457237683       -5.82375581216649       -6.39366624766698
H           -3.39645669067691       -5.49309311425490       -5.51056530749360
H           -3.99875415399152       -5.66677433372470       -6.92493418509210
O           -2.86160600197661        3.62200404793995       -7.85856683270012
H           -3.15655544364851        2.78581925043167       -8.23365048884245
H           -2.92797070674309        3.54004821321339       -6.90334547399018
O            4.45408930220266       -1.13314250369968       -7.20102767846393
H            4.16188750909979       -1.35120594733340       -6.31209988958470
H            3.83505618745613       -1.54436557004478       -7.81285780993848
O           -0.44069520465326       -0.37410136495000       -6.11511463629795
H           -0.08973271169665       -0.15059700637716       -5.24845759963441
H           -1.30750857600701       -0.76348748902755       -5.96582072868718
O            1.10756840022006        1.27423048097008      -11.25352935377472
H            1.65207833915757        0.48916298932940      -11.36952952577427
H            0.76598575962912        1.24870115393399      -10.35476273628363
O            3.99458104176479        1.40779693258816        9.75081849799077
H            4.24748291169434        1.20197805094105        8.84637040433668
H            3.03512352418083        1.34960963383432        9.79349361752003
O           -3.33553596079748       -0.77505112141834       11.80828342764128
H           -2.97922440443013       -1.09654957721283       10.97453956208312
H           -4.15353502777577       -0.30973705184298       11.60684736824245
O            2.93684868294598        7.78400807047926        8.85968812329720
H            2.75702720264530        7.04080174157127        8.26414022074762
H            2.29203524951196        8.46396243351513        8.64153356599410
O            1.02034192597686       -8.44045863348153        7.70615072082933
H            1.70789374455326       -9.08194106945814        7.49932040627738
H            1.03131171365569       -7.77963572645252        7.00760319966307
O           -7.35948433357817        1.76873703116324        8.54788718119141
H           -6.50821491016455        1.56250532802960        8.13348393194033
H           -7.82890912878029        2.32850571342585        7.92173590186269
O            7.77019480258085        4.92579553270449        8.15502005242407
H            7.77779096251172        4.07545640729883        7.70612760602016
H            6.87812633333818        5.05794429790336        8.49066556849443
O           -4.08593461260386       -8.95141937521409        7.79962704772489
H           -3.77349006698613       -9.37675431315233        6.99470039964599
H           -3.76425728380842       -8.04476890503708        7.78223588249577
O           -2.52144267418666        5.70414488990902        5.09796880620181
H           -2.05595189190252        5.04349995056137        4.55310604262366
H           -3.45724872759290        5.57136205482916        4.91895230258654
O           10.95289503832091       -4.96091115377007        6.74485366269561
H           11.49929975817321       -4.73936601440138        5.98427094574317
H           10.05017259998998       -5.05535468891018        6.42547453007941
O           -7.51352653016625       -3.83911421020535        7.50042678096760
H           -6.90008256857778       -4.51712755116924        7.80236882923069
H           -7.09453293510437       -2.98775732001884        7.65638194974124
O            5.97851191075897        9.27878309111308        4.86881644215595
H            6.14101646276501        8.54182953766856        5.46585153800756
H            5.97206111102641       10.07706608073643        5.40688241860399
O            5.40777913308069      -10.59851260288919        3.86009063596815
H            5.76653834166952      -11.07430866582055        3.10410468212792
H            4.57112475574939      -10.20955077308206        3.55835758893972
O           -7.81912757051171        4.08873259391447        3.28641872146691
H           -7.19712650199989        3.37853995722765        3.10703003712580
H           -7.52664637227233        4.85356660060183        2.78049011517072
O           13.43854928997712        1.44780243023078        2.18544437096039
H           13.64168450898267        1.90990181100154        1.36577294924853
H           12.51302479698055        1.19021817266887        2.13841656225264
O           -6.99767107054164       -8.37820276871289        3.54805221234650
H           -6.60565489714444       -8.80683677012632        2.78078630361283
H           -7.06468915684333       -7.43965365384729        3.34776431781589
O           -3.88453479805941       10.09106033410843        1.85134597798006
H           -3.57925608375937        9.19103746434114        1.99752878354604
H           -3.42771258072131       10.41971395191683        1.07062564248967
O            7.48836549155268       -7.35659866406971        0.22968776643767
H            8.13025967349610       -7.76468490869952        0.82017727450327
H            6.74293646276210       -7.08224092550121        0.77117112813063
O          -10.34192595201108       -2.34984478323719        0.55474326222943
H           -9.51584165798709       -2.28125455179778        0.06759405383964
H          -10.11140744069879       -2.42840117195015        1.48578161796367
O            8.44362211155462        6.69022166056758        0.78580198710968
H            8.26302472415999        5.79817860449746        1.09639703816796
H            7.72855609656024        7.24970595868369        1.10346952107772
O           -0.99105825530872      -10.47537312144634       -0.63445298508120
H           -0.65491305741959       -9.59227296767649       -0.81200406318188
H           -1.74768795293599      -10.37368607245590       -0.04841407394863
O           -6.84681419591281        7.12047564318432       -1.31503644193762
H           -6.22297132107618        6.40183869888748       -1.45083372229977
H           -6.41765845146567        7.92665214952964       -1.62026272655032
O           12.14398501399911       -2.56525401197907       -1.25825958831357
H           11.64535181609674       -2.66713041691925       -0.44186824312878
H           11.80954962960246       -1.77565441694269       -1.69466484819706
O           -8.36244950769930       -5.71977685442287       -5.14198586625482
H           -8.43213955640309       -6.52526260419050       -4.62000684940912
H           -8.23397719678604       -4.99376209899460       -4.52448996799574
O            1.01787924902059       10.87484121924084       -3.66444489201213
H            1.34767764686276       10.03418974116179       -3.99632810809757
H            0.82118108201784       10.75020131931047       -2.73122825422457
O            5.60557133325487       -7.22925172380199       -5.03051592213769
H            6.36313543621587       -7.35507705187988       -4.44992956860699
H            5.03681200105997       -6.57578809828686       -4.61434225281616
O           -9.93409621460838        0.51112103129951       -5.40331144968992
H           -9.36220176446794        0.34240700018880       -4.64907485204790
H          -10.77598821022390        0.81971147603217       -5.05369963963539
O            8.13918343031505        6.84500654746319       -4.63844773212113
H            8.35614247462301        7.37693523615053       -3.86655142892524
H            7.23095395958194        6.54710854028543       -4.53112071474346
O           -4.37609519086322      -10.64769069404642       -5.24590143569130
H           -3.55302698495257      -10.55710662448689       -5.73633555076437
H           -4.33896405257043      -10.01936192286190       -4.51847433610921
O           -3.04646979688013        8.66027943563985       -6.98728759564439
H           -3.84504504160551        8.13082658929316       -7.07554419626278
H           -2.47874051103196        8.20975137072590       -6.35465237378177
O            8.82996008152735       -3.79889343378807       -7.85287073715621
H            8.27254259377679       -3.93766718447177       -7.08122556426467
H            8.24275081661202       -3.62053347179868       -8.59420983676258
O           -5.41689443736065       -1.33911751951230       -8.15012095686661
H           -5.92589777913610       -1.29303140164318       -7.33562201448409
H           -5.95315399434893       -0.94098482749601       -8.84353326204800
O            3.16293330332740        6.96031837878247       -7.02640006255308
H            3.03569631064117        5.99960752797586       -6.98662275362432
H            2.84529831973152        7.23275901428604       -7.89367842064788
O            1.12818729816449       -7.36073993065740       -9.00603365752532
H            1.01164885324892       -6.78552344128407       -8.24393654559263
H            1.43721390664449       -6.81113233701995       -9.73376542793023
O           -4.25010619690034        1.37691534630043      -12.73225999050872
H           -3.37402170299948        1.77049882876436      -12.79333417248301
H           -4.86095277401732        2.08237731141659      -12.49756190702765
O            7.01280589979145        0.16798543608915      -11.55533407285415
H            7.16081615670778        0.40351425665885      -10.63444212925892
H            6.99081542317020        0.99044297622584      -12.05543522203576
O           -1.39525417764882       -3.16406618971088      -10.90165193192264
H           -1.47481684894094       -3.18994144130689       -9.94350255795351
H           -1.95588778928266       -2.44414769673709      -11.20781592227832
O            2.92527182768017       -0.02730340567557       15.00856560635389
H            3.46356540579264       -0.10405031242299       14.21475093608700
H            2.51571997084008        0.84354774910059       14.98573882437891
O           -2.83864606653502       -2.08538787780813       14.31447554418662
H           -1.95686150116522       -1.77076798280467       14.53752538336200
H           -3.06515622707148       -1.66322812339413       13.47088244354904
O            2.35713844379403        5.24735055668135       13.38336262043973
H            2.94592415376345        5.06576406808339       12.64420150041249
H            1.64104708553536        5.79244944744769       13.04270111916839
O            6.02202097183123       -6.22956235783500        8.48444588572904
H            6.12741974349966       -7.13607290662463        8.17707534697199
H            5.08188010003681       -6.08885458620548        8.62983219984043
O           -9.51023328903767        3.09074747974005       13.10526159606679
H           -8.57353101778072        2.93421456735643       12.95046870313038
H           -9.95771455206187        2.95526500340707       12.26414669386795
O           11.31138426464783        6.00432667709307       12.09140889644432
H           11.86137450138880        5.70109493078693       11.36206417932252
H           10.42732969418684        5.65657512563184       11.93837856409197
O           -4.26618619150478      -10.44418189351140       10.24665105119242
H           -3.36317911652244      -10.31181726153867       10.55247293848259
H           -4.33959829180952       -9.95189528489230        9.41397593701167
O           -2.07505804868842        6.94196078115483       10.34288370888665
H           -1.96095170266821        6.24989187754563        9.68475079963118
H           -2.14327741001449        7.77475817537268        9.86492611034661
O           11.68053713110082       -6.60289146329717        8.97274543097969
H           11.51642394308006       -6.02211472516711        8.21227951579116
H           10.95650668309055       -6.44291297928517        9.58594535103648
O           -9.74473643068437       -4.29988260816082        5.74025211873658
H           -8.99783725760815       -4.08310594415923        6.31871377261397
H          -10.08097804398762       -5.14740919466564        6.05001886094260
O            7.95082493959853       10.02104018362081        9.70430527933606
H            8.65964442626360        9.37018350607522        9.72761677515149
H            7.13496378274015        9.55552807644304        9.91379845169353
O            5.63734813115375      -11.49465187620826        6.53770000921317
H            5.61279091601317      -11.08994234327073        5.65424809700707
H            5.15246422389978      -12.32244069238750        6.45990730490528
O          -12.07061192380470        6.47136654434656        5.88795110577752
H          -11.49100664493216        5.73372152885672        5.67449631920734
H          -11.67506829294727        7.25967144496883        5.50211074326212
O           13.15268214619726        3.99675791300142        7.16357761807075
H           13.44380350061803        3.41675321304049        6.45305613204423
H           12.36912169491919        4.45822052482534        6.84856009693193
O           -8.92987876052311       -9.68214665051194        5.19477636545856
H           -8.46784089393959       -9.81373554764740        6.02846264758551
H           -8.29660001363623       -9.23576984171100        4.60944235779234
O           -1.08971346676144       10.86339159099564        6.31165627599422
H           -1.19111235193123        9.99317131455685        5.91446550628450
H           -1.51750253623297       11.49126383706921        5.72077350377982
O           10.73967954484182       -9.39973477482577        4.37632934395916
H           11.43751060673090       -9.36133002423420        5.03816777267267
H            9.91022467127561       -9.51348008705906        4.85108841684549
O          -14.82924046541701       -3.79339037894535        3.32995956794512
H          -14.09219331088220       -3.79475790810713        3.94898912668114
H          -14.49165555742456       -3.45868934484416        2.49338300180752
O           11.38239372769733       10.31172656031091        3.34478928884921
H           11.48865105423860        9.78687602459590        2.54520648269270
H           10.47735622887974       10.18428454609328        3.64621047257365
O            1.87942855199705      -14.69429801087376        1.71965861120824
H            2.73053939490126      -14.38871351350609        1.38994318413278
H            1.20235960173786      -14.24237337276478        1.20658879591947
O           -9.13798676189881       10.15452759022682        2.80360507986424
H           -8.91162786984141        9.50055344573406        2.13518333920559
H           -8.35707979877326       10.70157948155280        2.93426160868332
O           17.18630758311237       -2.49271327042689        1.00675268437408
H           16.55141377249912       -2.77658900376533        0.34146785100018
H           16.73540706571608       -1.85535252535447        1.56959899663921
O          -10.11074709522940       -7.84501190444786       -0.39067091904090
H          -10.44085361152844       -8.52374828549279        0.20679845701685
H          -10.28569101462239       -6.99548051269991        0.02562521241747
O            4.67943149983184       13.66008815930935       -0.87849062570519
H            4.14987926748058       13.00808451728192       -0.40931238984336
H            4.61939345229793       13.44995144077506       -1.81604047519851
O            5.29580025729896      -11.79871685200983       -1.54891655907223
H            6.06487190920164      -11.33716580484236       -1.89726787285947
H            4.54135190284674      -11.53192980652057       -2.08301694912697
O          -10.81528102474311        3.10020492988085       -0.99420451585503
H          -10.79421053985403        2.61622266321131       -0.16302327557462
H          -10.27242913990130        3.88601252819507       -0.87733186438786
O           12.37398020907759        4.30945317684878       -2.51293504217437
H           11.85922938477957        4.11742241922550       -3.30296321335821
H           11.79463743379503        4.78685149080884       -1.91091244051725
O           -5.03974629698693      -14.25722614641139       -1.50778880681278
H           -4.18202774044140      -13.92851477613561       -1.79501450127283
H           -5.70682581203130      -13.73986580131501       -1.97003110389360
O           -4.59269544358169       11.97746427662766       -3.33955691529198
H           -4.99313055546288       11.88017550848026       -4.20940473659669
H           -3.66633960019501       11.73290313663614       -3.42905547755121
O           11.06494451244520       -6.91857636580360       -4.00444291201483
H           10.83381315122318       -6.80860139081140       -3.07707274522549
H           11.36437134959818       -6.06122260967988       -4.32328189505041
O          -10.02589440158367       -3.23658711021128       -9.49942937587839
H           -9.50313181557647       -4.04375820032220       -9.53623526107111
H          -10.14066972907078       -3.01985524421635       -8.56895100699619
O            5.63378222252120       11.69273866961096       -6.12151414296794
H            5.75297553542438       10.74057674263814       -6.05104815158098
H            4.79558647629326       11.83662227995119       -6.57234712889107
O            3.43215062631980      -12.04451782123838       -6.66811385167753
H            3.83766663074458      -11.18680257836381       -6.82819597243820
H            2.52770373326063      -11.99174357612682       -6.99223751587376
O           -7.41749959473651        5.08398824872949       -6.34666168816476
H           -7.65613211880467        4.46084031928196       -7.04107404109839
H           -7.83286588751234        4.77510349793992       -5.53564321850392
O            9.39298443705699        0.99166072483042       -5.84470507573363
H           10.07585469259672        0.32344703209323       -5.96292875147666
H            8.55462419840483        0.52568125087462       -5.77168969318952
O           -6.88699631656729       -8.88939069406072       -9.57517789472370
H           -6.19080517557264       -9.54393544940281       -9.46062276573977
H           -7.13336830467692       -8.58607496839726       -8.69580919759366
O            0.82774200080016       11.45603296447911       -9.24363099750846
H            0.50317888009417       11.51894148130174       -8.33985850030266
H            0.32941897013238       10.75266371001121       -9.67167647504617
O            9.26513995650045       -8.85441282407208       -8.89669898633299
H            9.92980158473272       -8.42852512961669       -8.34599272161367
H            8.40669362887385       -8.60238886806288       -8.54241442781512
O           -9.31997771960048        1.81480709897185      -10.75732921823462
H           -9.30771832739786        1.09792202148828      -11.39973110229852
H           -9.77868495442417        1.48379211832366       -9.97882989544113
O            7.69247394533476        4.88436857435024       -9.46523967447408
H            8.23704812099870        4.57169946193443       -8.73612428559342
H            7.19172228796999        5.63772150355032       -9.13720321540984
O           -0.70894356914547       -9.51059263253660       -9.41246579570425
H            0.00185967838823       -8.86928025010816       -9.25228937469468
H           -1.49146537088399       -8.98863757962807       -9.61586471851719
O           -0.83423922098769        6.53593980207954      -11.66619974741776
H           -0.37933863107522        5.74826525213164      -11.35193456007542
H           -1.54352719143464        6.71659158731722      -11.04137708858561
O            5.46980955382500       -2.11916763238337      -12.26923166831136
H            6.11553407565953       -2.66999654941197      -12.72225392070422
H            5.95089356122337       -1.32143063066789      -11.99268585623198
O           -4.93223342716174       -3.65816268678790      -15.27056083632007
H           -4.47665742381339       -4.26999933110571      -14.68372773568370
H           -4.88698888079886       -2.78882424374544      -14.85997046800099
O            3.94382467028462        1.87554170597499      -15.79796274918630
H            3.83782030402013        0.97103444732401      -15.48633642110480
H            3.48911795137924        2.44284349250228      -15.16757019682385


