%chk=salicylate_solvated_2_Reduced_Structure.chk
#p B3LYP empiricaldispersion=gd3 scrf=(cpcm,solvent=water) scf=(maxcycles=500,xqc,maxconventional=1000) 6-31+G(2df,p)

Reduced_Structure

-4 1
C            3.61211999741858        4.19700000274815       -0.92139000362112
C            3.81125999486619        3.16908000271189       -1.86416000231359
C            3.08275000299326        1.99524999964670       -1.78379000478905
C            2.08927000137747        1.74327999847098       -0.75649000833855
C            1.90261999926822        2.81188000265708        0.21381000019719
C            2.66145000237087        3.97670999391867        0.08889000248838
C            0.91616000012385        2.72253999361226        1.38254001071787
O            0.19890999810800        1.69063000324237        1.50181000119503
O            0.88028000025900        3.70976000934010        2.17590999764228
O            1.47522000015080        0.63457000052743       -0.78169000046834
H            4.17848999901135        5.12804999911344       -0.96844000124991
H            4.54611000162766        3.29425000031638       -2.66620999924565
H            3.22696000033435        1.19115999609757       -2.50296999908190
H            2.47714000104589        4.73667999685626        0.84501000542106
Fe          -0.01291000004011        0.00671999922729        0.38781000018994
C            1.92154000340999       -5.18412000240869       -0.91306000134082
C            0.92414000534103       -4.86708999904668       -1.85661000799804
C            0.23486000178123       -3.67037000460357       -1.77053000709307
C            0.48217000375185       -2.68124000545043       -0.73814999895894
C            1.50718999970876       -3.03004999448684        0.23471000613006
C            2.17375000826619       -4.24941000244281        0.10437002158545
C            1.88730000122838       -2.12889000559989        1.41365999269428
O            1.33116999625550       -1.00167999972082        1.52811999980798
O            2.75344999967427       -2.58055000330413        2.22084000172188
O           -0.20102000153865       -1.61346000059768       -0.75992999893250
H            2.47516999966328       -6.12265000089981       -0.96582999880048
H            0.68970000019934       -5.56820000098391       -2.66436999791822
H           -0.53880000249366       -3.41154999976366       -2.49134999460674
H            2.92675000075188       -4.45269000024925        0.86288000502790
C           -5.46908000125665        0.94358999946665       -0.93593999953680
C           -4.68944999996670        1.61954999775407       -1.89556000345646
C           -3.30842000044035        1.60536999886691       -1.81082000041926
C           -2.58172000001134        0.91304000112597       -0.76306000050906
C           -3.40286999930725        0.22713000027962        0.22407999975089
C           -4.79195999987649        0.27218999923026        0.09489000032826
C           -2.81975000002075       -0.53948000245980        1.41506000391150
O           -1.56596999999415       -0.63306000016458        1.52913999976686
O           -3.64837000162596       -1.04348999993548        2.23031999949597
O           -1.31498999998295        0.95993999990964       -0.78537999993734
H           -6.55896000012921        0.94600999994123       -0.98578999969594
H           -5.17432000051301        2.16042000091006       -2.71490000086951
H           -2.69263000000858        2.12350000017211       -2.54404000056958
H           -5.34937000000804       -0.25678000001427        0.86515999930425
O           -0.07424531593288        0.81685032890255        6.41491370055537
H            0.55328740227381        0.38747226701891        5.82545311679773
H           -0.78654345874043        1.13399775606121        5.85133909560447
O           -2.32911087921045       -3.68760747224047        7.01417353390145
H           -1.40070694028205       -3.85180441627773        6.82137352702178
H           -2.65894999449027       -3.12503807367201        6.30735510968384
O            2.32046386927975        5.69924440841534        7.10576671181244
H            2.18502901133878        4.79940408614719        7.41944158994544
H            2.00192520954054        5.72498794137155        6.19877056635393
O            2.66571950149676       -4.09806128188801        4.40089295990911
H            2.96819714410260       -3.47177706448083        5.06687675862389
H            2.64326135475343       -3.57660573381560        3.56338125968322
O           -6.98153167796193        1.55132768107335        5.62800794252596
H           -6.15950223624979        1.05861473985810        5.54887528343819
H           -7.13773149784945        1.96217181381038        4.77193850187717
O            5.34597332985787        1.66414212331001        4.48274515564947
H            4.84906693239519        0.98524077892888        4.01717430937064
H            4.86538261252931        2.48773394590136        4.35374678798739
O           -2.01537042925547       -6.90924554857431        3.05071117916345
H           -1.32831343895159       -6.26654150863705        2.85263391698422
H           -2.85114112498872       -6.43260842875632        3.02925141911327
O           -1.96310968991269        7.60406355105459        4.05904880243596
H           -2.20577378957562        6.67889795382977        4.16021816204142
H           -1.26576503067296        7.63146100748914        3.39693469793058
O            8.11642359456692       -3.32206545391018        2.80118103496381
H            8.09813452718217       -2.36810023765296        2.67469048554531
H            7.20106284947934       -3.61267186816968        2.85088150057670
O           -5.58174678688816       -2.86437886574386        2.08463314179866
H           -4.83000049658508       -2.22480506763565        2.06278369848812
H           -5.90074854270640       -2.83292243929454        2.99290896669455
O            3.35997550472421        9.75500428426950        1.29327286353183
H            3.40230655167720        9.07546407626242        1.97220286135923
H            2.87197822558588        9.38011146871540        0.55362187551825
O            2.95296808635956       -9.49695026817663        2.92678788306920
H            3.27802944866031       -8.60753198048035        3.09527607105084
H            2.04443825845155       -9.40396857651940        2.62324031322489
O           -4.96841593519965        3.47798656505988        0.95775282121789
H           -5.10529435575138        2.65328418724824        0.46619935539518
H           -4.03942372070629        3.47420482321287        1.20738554897822
O            8.65650832348782        1.62636291049691        0.02183682765169
H            7.99141057663007        2.02264894507387        0.59246675064564
H            8.18481351993836        1.08483333735873       -0.61792127883328
O           -4.65375046491210       -6.94527722577019       -1.61466921377915
H           -3.72149481914927       -6.72282743792433       -1.53392937395024
H           -5.13862927245273       -6.28820357449018       -1.10590068006681
O           -1.24085373807153        6.85001045763403       -2.30369554124294
H           -1.55924630466692        6.41577465140098       -1.50675525769471
H           -0.55347390393421        6.28309302383069       -2.66671416411421
O            6.70088648465963       -2.98269568598800       -2.59558291896971
H            6.79147903814913       -3.54427161777560       -1.81925757840376
H            5.85837827026838       -2.52781299305675       -2.50799474773632
O           -5.56866951878966       -1.38679283918345       -3.02275636816962
H           -5.48798482114533       -0.67858202684256       -2.36392047841636
H           -4.85611286049722       -2.00307338607495       -2.82883511295634
O            5.03706729947907        6.18411426541889       -7.40180943812104
H            4.83602363063247        5.85311717286350       -6.52164997232494
H            4.49905164745480        5.67966390044635       -8.02078573158188
O           -1.55939902904833       -5.50794698145124       -7.18610183846940
H           -0.79605332931102       -4.93663568043202       -7.05617115288601
H           -2.11062619924790       -5.41890380739802       -6.40271598495643
O           -3.42841083421697        4.47531397037159       -7.09685324022791
H           -3.48747036181665        3.54263354819599       -6.86826286321887
H           -3.13216633571773        4.93753399257474       -6.30672858474571
O            5.09170581534154       -0.60517420840520       -7.39271925723208
H            5.75116393945440       -1.07614670035898       -6.87329392685050
H            4.34133886633894       -0.44629962284356       -6.81246510803186
O           -0.51527890351911       -0.18559318250003       -6.13770013435502
H           -0.02891295181739       -0.01771132135131       -5.32487396481619
H           -1.38558672908267       -0.49730496185035       -5.87108457656198
O            1.26042347021772        2.88665790184746      -10.00388606270204
H            1.68963333141687        2.09879536006413       -9.65578192141193
H            0.47287925545597        3.03320729699981       -9.47070251123544
O 3.0881732295457276 0.11126112136440694 11.541773451135692
H 3.9881732295457275 0.11126112136440694 11.541773451135692
H 2.7951618905342865 0.9622278394037921 11.541773451135692
O -3.2924611129084624 -3.146463257120287 10.871364124547409
H -2.3924611129084625 -3.146463257120287 10.871364124547409
H -3.5854724519199035 -2.2954965390809017 10.871364124547409
O 0.8000674456930451 6.223022190765059 10.200954797959126
H 1.7000674456930451 6.223022190765059 10.200954797959126
H 0.5070561066816042 7.073988908804444 10.200954797959126
O 4.614123637692142 -5.563111095424442 9.530545471370841
H 5.514123637692142 -5.563111095424442 9.530545471370841
H 4.321112298680701 -4.712144377385057 9.530545471370841
O -7.596110953754888 1.5015489811615081 8.860136144782558
H -6.6961109537548875 1.5015489811615081 8.860136144782558
H -7.889122292766329 2.352515699200893 8.860136144782558
O 7.590041244508164 4.771687015500767 8.189726818194275
H 8.490041244508165 4.771687015500767 8.189726818194275
H 7.297029905496723 5.622653733540152 8.189726818194275
O -2.1463257912435667 -8.853872034899807 7.51931749160599
H -1.2463257912435668 -8.853872034899807 7.51931749160599
H -2.4393371302550078 -8.00290531686042 7.51931749160599
O -4.253897547167696 8.809598215265815 6.848908165017706
H -3.3538975471676964 8.809598215265815 6.848908165017706
H -4.546908886179137 9.660564933305201 6.848908165017706
O 9.89155428523612 -3.404820009945549 6.178498838429424
H 10.79155428523612 -3.404820009945549 6.178498838429424
H 9.59854294622468 -2.5538532919061634 6.178498838429424
O -9.568702561815769 -3.9474069898753927 5.508089511841139
H -8.668702561815769 -3.9474069898753927 5.508089511841139
H -9.86171390082721 -3.0964402718360073 5.508089511841139
O 4.913259394765788 10.047123987406296 4.837680185252856
H 5.8132593947657885 10.047123987406296 4.837680185252856
H 4.620248055754347 10.898090705445682 4.837680185252856
O 3.6315584811448147 -10.626038977770703 4.167270858664575
H 4.531558481144815 -10.626038977770703 4.167270858664575
H 3.3385471421333737 -9.775072259731317 4.167270858664575
O -9.677793288500375 5.872553043236328 3.496861532076291
H -8.777793288500375 5.872553043236328 3.496861532076291
H -9.970804627511816 6.723519761275713 3.496861532076291
O 11.675342809424473 2.6200813020578 2.826452205488006
H 12.575342809424473 2.6200813020578 2.826452205488006
H 11.382331470413032 3.471048020097185 2.826452205488006
O -6.54414408666541 -9.572180230011773 2.1560428788997217
H -5.64414408666541 -9.572180230011773 2.1560428788997217
H -6.837155425676851 -8.721213511972387 2.1560428788997217
O -1.2720669768249655 11.9625803887321 1.485633552311438
H -0.3720669768249655 11.9625803887321 1.485633552311438
H -1.5650783158364066 12.813547106771486 1.485633552311438
O 9.458894201832875 -7.638467951921566 0.8152242257231558
H 10.358894201832875 -7.638467951921566 0.8152242257231558
H 9.165882862821434 -6.787501233882181 0.8152242257231558
O -11.788721923854837 -0.3871438900707186 0.14481489913487203
H -10.888721923854837 -0.3871438900707186 0.14481489913487203
H -12.081733262866278 0.4638228279686666 0.14481489913487203
O 8.814093160071721 8.620055750835267 -0.5255944274534112
H 9.714093160071721 8.620055750835267 -0.5255944274534112
H 8.52108182106028 9.471022468874652 -0.5255944274534112
O -0.2917818186621115 -11.90129733677157 -1.1960037540416952
H 0.6082181813378885 -11.90129733677157 -1.1960037540416952
H -0.5847931576735526 -11.050330618732184 -1.1960037540416952
O -7.393048821541377 9.28659144017662 -1.8664130806299775
H -6.493048821541377 9.28659144017662 -1.8664130806299775
H -7.6860601605528185 10.137558158216006 -1.8664130806299775
O 11.995021225927715 -1.4671731003520558 -2.536822407218261
H 12.895021225927715 -1.4671731003520558 -2.536822407218261
H 11.702009886916274 -0.6162063823126707 -2.536822407218261
O -9.32736696993641 -6.561945484674439 -3.207231733806545
H -8.42736696993641 -6.561945484674439 -3.207231733806545
H -9.620378308947851 -5.710978766635054 -3.207231733806545
O 2.78558147289576 11.321328087715788 -3.87764106039483
H 3.68558147289576 11.321328087715788 -3.87764106039483
H 2.492570133884319 12.172294805755174 -3.87764106039483
O 5.8585124667902235 -9.652452647062509 -4.548050386983115
H 6.758512466790224 -9.652452647062509 -4.548050386983115
H 5.5655011277787825 -8.801485929023123 -4.548050386983115
O -10.187306947082932 3.4454137270503518 -5.2184597135713995
H -9.287306947082932 3.4454137270503518 -5.2184597135713995
H -10.480318286094374 4.296380445089737 -5.2184597135713995
O 9.919987951153779 4.572716375551894 -5.888869040159681
H 10.819987951153779 4.572716375551894 -5.888869040159681
H 9.626976612142338 5.423683093591279 -5.888869040159681
O -3.693364594134379 -9.34391502941511 -6.559278366747963
H -2.793364594134379 -9.34391502941511 -6.559278366747963
H -3.98637593314582 -8.492948311375724 -6.559278366747963
O -3.0536558004569647 9.334323452372244 -7.229687693336246
H -2.153655800456965 9.334323452372244 -7.229687693336246
H -3.3466671394684058 10.18529017041163 -7.229687693336246
O 8.48126883634746 -4.207668779500277 -7.90009701992453
H 9.381268836347461 -4.207668779500277 -7.90009701992453
H 8.18825749733602 -3.356702061460892 -7.90009701992453
O -8.132541233009166 -2.101958098951826 -8.570506346512817
H -7.232541233009165 -2.101958098951826 -8.570506346512817
H -8.425552572020607 -1.2509913809124409 -8.570506346512817
O 4.580554545471793 6.824979622328089 -9.2409156731011
H 5.480554545471794 6.824979622328089 -9.2409156731011
H 4.287543206460352 7.675946340367474 -9.2409156731011
O 1.474755237578918 -6.935589458744394 -9.911324999689382
H 2.374755237578918 -6.935589458744394 -9.911324999689382
H 1.1817438985674769 -6.084622740705009 -9.911324999689382
O -4.58698443779817 3.8678949136009195 -10.581734326277665
H -3.6869844377981704 3.8678949136009195 -10.581734326277665
H -4.879995776809611 4.718861631640305 -10.581734326277665
O 5.069977348503187 0.5094523252842862 -11.25214365286595
H 5.969977348503187 0.5094523252842862 -11.25214365286595
H 4.776966009491746 1.3604190433236714 -11.25214365286595
O -1.6543606905389232 -1.9620938860925665 -11.922552979454235
H -0.7543606905389232 -1.9620938860925665 -11.922552979454235
H -1.9473720295503643 -1.1111271680531813 -11.922552979454235


