%chk=Fe_39H2O_TPSSh_0_5.chk
#p TPSSH 6-31+G(2df,p) scf=(maxcycles=500,xqc,maxconventional=50) scrf=(cpcm,solvent=water)

Fe_39H2O_0_5

0 5
Fe           0.11735482814746       -0.71725845197925        0.21592319703025
O           -1.07006217789602       -1.43569344755175        2.25284548132129
O            1.69509864996725        0.63925276729420        1.53990907070476
O            1.92662111974956       -0.51440112505712       -1.40721258907717
O           -1.15497807775506       -0.03225604125175       -1.84589974000679
O           -1.04586192088936        1.35245318637260        0.89123491661868
O            1.21799593670597       -2.79680946084718        1.00250006678335
H           -2.00182633207801        1.39770666848285        1.04219344398612
H           -0.84585295260507        1.98571200536094        0.18945869309559
H            1.44364880687295       -2.65314965417714        1.93594157525409
H            2.05231865401104       -3.01874530890008        0.56394296671402
H           -0.68683724998040       -0.87337497347978        2.94116045545303
H           -2.02344775137061       -1.28699735205539        2.26675046866521
H            2.69209181156112        0.05413174753901       -1.25344994440622
H            2.24893884715482       -1.24938960203817       -1.94260426359105
H            1.81156753452555        1.50387596256447        1.11072307074741
H            2.56875012909156        0.20101707523947        1.51553378060934
H           -2.11970261935623        0.05298830663005       -1.74540016911985
H           -1.01203576677607       -0.83910229844688       -2.34682457599855
O           -3.77734783590869        1.42022851088919        1.42870687497041
O            3.68859466951147       -3.04660657152275       -0.16417318133054
O           -3.90067015778546       -0.05113063182449       -1.82680402771977
O           -0.92983353475765       -2.69465205073631       -0.90633907015496
O           -5.44508162756040        1.55528661593458       -0.54650116971832
O           -3.58856707772934       -2.31203192351487       -0.39286161285546
O            2.29695817291378       -1.88120101683808        3.37981029194702
O            3.99621646749719       -0.75174603569219        1.23403549613488
O            2.14880266254083        2.80809455498836       -0.01567103531595
O           -0.09019283876180        2.47295979980951       -1.49116249850567
O            4.13729040162591        1.11690041858823       -0.69275809196402
O            3.31152639139690       -2.54026181096505       -2.80443993390908
H           -3.73629388806205       -1.50130274301622       -0.92655043221124
H           -4.14176390418982       -3.00846582780862       -0.77914783080570
H           -3.82944902309080        0.47305712487327        1.66964108781351
H           -2.28311302524359       10.71093572276016        5.09134852392645
H           -6.18975211703114        1.01899184637640       -0.27047726209354
H           -4.40985658255894        1.52599757927002        0.65655751241377
H           -0.48946359193132        3.07988086102093       -2.12859203810247
H           -0.31869442461762        1.56897667855379       -1.77430219886489
H           -4.26092434501954       -0.09233385588391       -2.72306848228604
H           -4.48677575758090        0.60596727594035       -1.33217536839206
H           -1.86952516994423       -2.62809480747220       -0.65939830208563
H           -0.53718638949295       -3.35630160698292       -0.33199646125148
H            4.06784488475454       -2.23643863912115       -3.33134045901719
H            3.08219040448929       -3.42063342193549       -3.13853866175657
H            4.96903282168445        1.58565716412316       -0.83749317643331
H            3.47514236408649        1.79913373505114       -0.44863696144104
H            2.22880339480023        3.75856490984643        0.13753825624368
H            1.37803076248568        2.67751867539501       -0.60551454351335
H            4.18038188933326       -0.07495376853460        0.54688515974105
H            3.68467652662324       -1.53146124104869        0.72244124623679
H            1.66091643389948       -1.20600580611252        3.66945058461318
H            2.95309445865412       -1.41494600715870        2.84127350501766
H            4.62306606417683       -3.20740364042585        0.01460817553774
H            3.60033883677333       -2.83411071238674       -1.11569219669485
O            0.49388522377254        0.19941271212070        3.86587983741684
H            0.28082524339131        0.96942073626823        4.39247443466938
H            0.85848434998529        0.52490361403103        3.00873287219965
O           -2.06655894821014       -3.45126548691058        6.96146204881769
H           -1.14834173881086       -3.47086034234790        6.66999546416842
H           -2.37825939714686       -2.54961478625728        6.83629446798794
O            0.29078749783184        5.80482270837168        4.99154479706222
H           -0.49532694483325        5.48833529724618        4.53342175526820
H            0.10006797276454        6.69634580255475        5.29127742424101
O            3.47197181542495       -3.27719555095093        5.42449063232403
H            3.24638288719567       -4.18985783769780        5.22648715986606
H            3.04376259085862       -2.74448013783792        4.71697391083062
O           -4.63915564821417        2.81038966734442        3.61226690262548
H           -4.34680510738676        2.35829592204963        2.78710734234042
H           -4.04433987006606        2.49477170996966        4.29984817434382
O            5.25000427916814        2.94032010835459        4.50840943862645
H            5.27363383864073        2.03181892711731        4.82625713270063
H            4.34850319054473        3.25465115192895        4.63054779696352
O           -1.99760612743128       -6.65675132295163        2.69975920721917
H           -1.11724572445376       -6.42508721268154        3.01361001249892
H           -2.56641347099883       -5.90739542319402        2.90382987759105
O           -2.75165985426447        7.31478752384135        0.66561598554467
H           -3.22006496076939        6.51486932258893        0.92873322191051
H           -2.89343765071220        7.96685377025677        1.35583912903817
O            6.21741778946512       -2.45293595554191        1.05277101468436
H            6.57960222111952       -2.75175831698022        1.88861257166260
H            5.60019504573583       -1.72307321004185        1.26529054671123
O           -3.85344110711262       -1.26070665032881        2.05607350727612
H           -3.77869243354605       -1.69480084504248        1.17419314911859
H           -4.54713833866927       -1.71244021977090        2.53923382562538
O            2.43343693588321        5.59874126056626        0.41524015109984
H            3.02438391601796        5.91282331946599        1.10513475377819
H            1.63230969561098        6.12688671853230        0.46408106121554
O            3.00467518434915       -5.28004778456535       -3.43071771692881
H            3.81868512116146       -5.78201997964995       -3.52105349286701
H            2.38917781313361       -5.82105287323390       -2.92659289071284
O           -6.64143854896416        3.61897188292163       -1.45599567658268
H           -6.13202664936040        2.79657529996593       -1.11487336529235
H           -6.80808631435030        4.14444533421755       -0.66963855223394
O            6.52878161798131        2.64001297621892       -0.74493439788455
H            7.00427523859405        2.60000136077622        0.09010929212191
H            6.56625251988160        3.54878322220723       -1.05526349879214
O           -4.86483765528152       -4.49091252275824       -1.61166015603529
H           -4.62970364189454       -5.35164139518135       -1.25118048836544
H           -4.78949195795579       -4.55026238739625       -2.56903169182160
O           -1.37242537112953        4.33649875652194       -3.21198918098627
H           -1.13113826940500        5.26463278960049       -3.15260368578242
H           -2.32351613010940        4.28394163483207       -3.08315143843454
O            5.57004220815769       -1.63189616291406       -4.20937661978251
H            6.39905826344346       -1.59231667530108       -3.72314595830606
H            5.49645201269314       -0.81784607318675       -4.71590821655966
O           -4.84638548503590       -0.13353491122370       -4.53411278746586
H           -4.52066065840001       -0.69593758911295       -5.24489120048155
H           -5.15405357519971        0.68453396767256       -4.93207618936746
O            3.69521006951117        4.10409467982919       -4.95246539967466
H            3.25107184128004        3.25826009239587       -4.82539894071097
H            3.38051609876772        4.68716071219906       -4.25485205769797
O           -1.62100451385905       -4.20915230514940       -6.24365844897669
H           -1.13689517996721       -4.24176015764403       -5.41089060028390
H           -1.18435837384595       -3.55087226623066       -6.79255759958189
O           -0.61150777826359        1.13030007701152       -7.40703345645762
H           -0.42909651329561        1.02616489995494       -6.46624557753938
H           -0.54146125775487        2.06889424364475       -7.60148832868730



