%chk=maltolate_solvated_1_Oxidized_Structure.chk
#p B3LYP empiricaldispersion=gd3 scrf=(cpcm,solvent=water) scf=(maxcycles=500,xqc,maxconventional=1000) 6-31+G(2df,p)

Oxidized_Structure

0 2
C            1.86448748041485       -1.51113818109012       -0.97124075537329
C            0.44366472388192       -1.50182839062458       -0.49608224883732
C           -0.27288626521902       -0.34209588396899       -0.24041128660263
C           -1.67283023773614       -0.49125769125412        0.21931495195372
O           -2.36260663502871        0.53194338907992        0.44977225153611
C           -2.15344727039735       -1.82804777224086        0.37483422778489
C           -1.34391559248062       -2.88119022326096        0.09694880497586
O           -0.08781423933242       -2.75867980106307       -0.32540867029797
O            0.20376337027376        0.83428611550801       -0.38515722653141
H            2.51227683483747       -2.03128246461024       -0.26399419272116
H            1.95217371306498       -2.00653987239351       -1.93952945808221
H            2.18314121960510       -0.47682987040903       -1.06192713019409
H           -3.16442343970557       -1.99349707038983        0.71347866806111
H           -1.64078513367764       -3.91560092931267        0.19156394925702
Fe          -1.33954341111968        2.27437717088849        0.15824789891188
C            1.14505018051586        6.34812428308295       -1.60138187566206
C            0.22478235276511        5.36731041239382       -2.26159603760705
C           -0.36927296334369        4.30489418388633       -1.59646158499552
C           -1.24955416619528        3.41150593226142       -2.38363972077767
O           -1.80921444098275        2.43880637419450       -1.82072091173858
C           -1.40112195754309        3.72594757820634       -3.76952672690064
C           -0.75987554444731        4.79772560178091       -4.30047272307047
O            0.03124915233654        5.60895124456278       -3.60179304964538
O           -0.20093055736100        4.06103111804485       -0.35368961793957
H            2.13308989161175        6.33299089128089       -2.06420400144376
H            0.75349138364552        7.36436070837693       -1.67036702446797
H            1.22951576534917        6.06117384185624       -0.55721038700148
H           -2.02907422234310        3.10548284581989       -4.38982989030297
H           -0.82925072563640        5.09428253707057       -5.33698356707485
C           -0.79957826647587        2.69514331968475        5.19514689590218
C           -1.80085305004944        3.26892741765564        4.23999383244346
C           -1.77917164623032        3.03441094938328        2.87317665348424
C           -2.83173401537462        3.67501221641950        2.05179924011287
O           -2.85323678101267        3.48315050797954        0.81146753084201
C           -3.77344782007454        4.49315110980676        2.74908864672579
C           -3.68185525316821        4.64403617504854        4.09467470750084
O           -2.74398401330381        4.06778343543059        4.84325927840170
O           -0.91001743697099        2.29968501118418        2.29273300348426
H           -0.26453142351733        3.48514886577241        5.72402561052000
H           -1.28226993807534        2.05728588724409        5.93703485544455
H           -0.09642628833405        2.10676350565555        4.61316220514831
H           -4.55845842862544        4.98815394927397        2.19879700862590
H           -4.35867839453540        5.24384479178221        4.68557828614935
O 1.348065813538387 2.313202400465067 7.757487477288229
H 2.248065813538387 2.313202400465067 7.757487477288229
H 1.055054474526946 3.164169118504452 7.757487477288229
O -3.7612081358214082 -0.28565480773411966 7.080004409416356
H -2.8612081358214083 -0.28565480773411966 7.080004409416356
H -4.054219474832849 0.5653119103052655 7.080004409416356
O -0.5002631560654929 7.144672462531756 6.4025213415444835
H 0.39973684393450715 7.144672462531756 6.4025213415444835
H -0.7932744950769339 7.995639180571141 6.4025213415444835
O 2.4811074383876726 -2.1285244099437683 5.72503827367261
H 3.3811074383876725 -2.1285244099437683 5.72503827367261
H 2.1880960993762315 -1.2775576919043832 5.72503827367261
O -7.011241535765137 3.38989992803286 5.047555205800738
H -6.111241535765137 3.38989992803286 5.047555205800738
H -7.304252874776578 4.240866646072245 5.047555205800738
O 4.6838130569850005 5.880613089813256 4.370072137928865
H 5.583813056985001 5.880613089813256 4.370072137928865
H 4.3908017179735594 6.731579807852641 4.370072137928865
O -2.7456967994251955 -4.4623718131605665 3.6925890700569917
H -1.8456967994251956 -4.4623718131605665 3.6925890700569917
H -3.0387081384366366 -3.6114050951211816 3.6925890700569917
O -4.291011202671896 8.795635617950552 3.0151060021851186
H -3.3910112026718964 8.795635617950552 3.0151060021851186
H -4.584022541683337 9.646602335989938 3.0151060021851186
O 6.140619487170614 -0.26688810033248833 2.3376229343132477
H 7.0406194871706145 -0.26688810033248833 2.3376229343132477
H 5.847608148159173 0.5840786177068968 2.3376229343132477
O -8.016163299620775 -0.614223322292176 1.6601398664413745
H -7.116163299620775 -0.614223322292176 1.6601398664413745
H -8.309174638632216 0.23674339574720915 1.6601398664413745
O 2.3654176943462644 9.343098448218894 0.9826567985695025
H 3.2654176943462643 9.343098448218894 0.9826567985695025
H 2.0724063553348233 10.19406516625828 0.9826567985695025
O 1.4074556559479663 -5.120743007548769 0.30517373069762865
H 2.307455655947966 -5.120743007548769 0.30517373069762865
H 1.1144443169365252 -4.269776289509384 0.30517373069762865
O -7.639656005461008 6.2048992042903475 -0.3723093371742436
H -6.739656005461008 6.2048992042903475 -0.3723093371742436
H -7.932667344472449 7.055865922329732 -0.3723093371742436
O 6.569094912947953 3.9606001791145515 -1.0497924050461174
H 7.469094912947953 3.9606001791145515 -1.0497924050461174
H 6.2760835739365115 4.811566897153937 -1.0497924050461174
O -5.249992470260058 -3.8396763580922473 -1.7272754729179907
H -4.349992470260058 -3.8396763580922473 -1.7272754729179907
H -5.543003809271499 -2.9887096400528623 -1.7272754729179907
O -1.8629973916022498 9.55720832943327 -2.4047585407898615
H -0.9629973916022497 9.55720832943327 -2.4047585407898615
H -2.156008730613691 10.408175047472655 -2.4047585407898615
O 4.440588715077349 -2.2083158766509765 -3.0822416086617346
H 5.34058871507735 -2.2083158766509765 -3.0822416086617346
H 4.147577376065908 -1.3573491586115913 -3.0822416086617346
O -7.565194497257315 2.038579797610797 -3.7597246765336085
H -6.665194497257315 2.038579797610797 -3.7597246765336085
H -7.858205836268756 2.8895465156501823 -3.7597246765336085
O 3.4573141835773917 6.67347530480365 -4.43720774440548
H 4.357314183577392 6.67347530480365 -4.43720774440548
H 3.1643028445659507 7.524442022843035 -4.43720774440548
O -1.18281170535892 -3.277752154957035 -5.114690812277352
H -0.28281170535892 -3.277752154957035 -5.114690812277352
H -1.475823044370361 -2.4267854369176503 -5.114690812277352
O -4.031746886966463 6.036984512719585 -5.792173880149226
H -3.131746886966463 6.036984512719585 -5.792173880149226
H -4.324758225977904 6.88795123075897 -5.792173880149226
O 2.8887235495978683 1.8001679671407256 -6.4696569480211
H 3.788723549597868 1.8001679671407256 -6.4696569480211
H 2.595712210586427 2.6511346851801108 -6.4696569480211
O -2.789556694030884 1.0153924877639309 -7.147140015892971
H -1.889556694030884 1.0153924877639309 -7.147140015892971
H -3.082568033042325 1.866359205803316 -7.147140015892971


