%chk=maltolate_solvated_3_Reduced_Structure.chk
#p B3LYP empiricaldispersion=gd3 scrf=(cpcm,solvent=water) scf=(maxcycles=500,xqc,maxconventional=1000) 6-31+G(2df,p)

Reduced_Structure

-1 1
C            2.10323857340948       -1.10203311831107       -0.87745086649818
C            0.69971216203288       -1.12829241011521       -0.35469010068445
C            0.01891043719115        0.00040600170675        0.07619371204568
C           -1.36070058560914       -0.18772470277285        0.58050517884733
O           -2.01153702416899        0.79911345503860        1.00225967768586
C           -1.87566214070646       -1.52136468368445        0.54414910525106
C           -1.11584899697926       -2.54187046335311        0.07763530713450
O            0.13828377938643       -2.39024034999752       -0.35156628766776
O            0.51592113492455        1.17817848480301        0.06213314371648
H            2.75047609718104       -1.76577433774675       -0.30379770329551
H            2.14243207353026       -1.41407071428101       -1.92174890379421
H            2.45877400474410       -0.08062036653206       -0.79428176171187
H           -2.88322910331057       -1.71516364973578        0.87491079922446
H           -1.46319119836228       -3.56072217356578       -0.00741980231269
Fe          -1.07109937298232        2.58239978194463        0.72821995529159
C            0.69489832891514        6.98266794342728       -1.21812826268697
C           -0.14021486942070        5.88405260389475       -1.80095194089194
C           -0.49089962693277        4.73221115171617       -1.10897082139834
C           -1.33199887989663        3.74467257054662       -1.82173211129613
O           -1.70306797148813        2.69903063231582       -1.23498297021288
C           -1.68223787029887        4.06135505183820       -3.17099960416325
C           -1.27330471677033        5.22808189515023       -3.73198390357364
O           -0.53156750172823        6.12577347404712       -3.09330093926560
O           -0.13349970193461        4.48909770272152        0.09431380712881
H            1.58352224464031        7.15997472903260       -1.82486670342734
H            0.13319298656498        7.91589165329348       -1.16579890219262
H            0.98148653273210        6.67775981248154       -0.21732748372371
H           -2.28794430903512        3.37459760582234       -3.74044432659521
H           -1.52615320940918        5.53996631213071       -4.73520518882005
C           -0.34491665644150        3.14789777268713        5.76705369998861
C           -1.44843330048644        3.57786985116522        4.85033130722987
C           -1.45990640635455        3.33117099184904        3.48301770017706
C           -2.61083442918249        3.84965449887736        2.70910803677953
O           -2.66522031095613        3.67065688066398        1.46824390356706
C           -3.61672380234559        4.54228864803337        3.45230664992559
C           -3.48892154392840        4.70524651771244        4.79376604626762
O           -2.45204816983531        4.25784588925507        5.49227413836837
O           -0.54030365462152        2.68926939299016        2.86927205174236
H            0.10056225267097        4.00940030751506        6.26450255730681
H           -0.70758902461068        2.47239616925434        6.54335861426716
H            0.40438277471133        2.64338522744527        5.16685330701848
H           -4.48400794602371        4.93123529335924        2.94321702603773
H           -4.21518100069776        5.20698004608117        5.41578424245728
O           -0.49231885091112        1.26925959735148        8.82186734215808
H           -0.01578025331670        0.44917131648829        8.98372833735835
H           -0.12981154896245        1.91583579250927        9.44973256746708
O           -4.41413536049201       -1.11996062977792        5.86248756818677
H           -4.10390798358758       -0.79422699255645        6.71262432370626
H           -3.94050763250268       -0.62750502212231        5.18500832419691
O            0.12092761929051        9.05956518769684        5.83210840882866
H            0.95599247826140        9.43459359579047        5.53422114828351
H           -0.20256346980740        8.49360730214043        5.12382328352921
O            1.10007629391472       -2.54992019022029        5.04634243887697
H            1.71937408934813       -2.58269060952961        4.31103136995315
H            0.54546295385405       -1.77600845650853        4.90878599440603
O           -7.59518908772149        3.41702955911942        6.26888133631832
H           -7.45829077988096        2.46446498693993        6.27756493547679
H           -8.15051969881244        3.61180069617028        5.50711574934527
O            3.97666425891032        6.14729715345209        3.95322708567637
H            4.14347992459632        5.60010950732382        4.72660461689713
H            3.22217633564618        5.76015971347888        3.49764067550656
O           -2.18713180112484       -6.94100038121429        4.30835614519826
H           -1.84158936275743       -6.17978711884206        3.83089904016849
H           -2.34464623901880       -6.63831283326737        5.21633597320784
O           -3.43573421871664       10.06139702941223        1.83715421817442
H           -3.26015186865318        9.13330470896345        1.65511254444061
H           -2.65625960689341       10.54632299556345        1.52123165777612
O            5.05159447758627        0.88303251034565        3.45782043005972
H            5.45395928232402        0.56989523124378        2.64172549992648
H            4.16461763973639        1.18290466312265        3.23369773713746
O           -7.47305798304675        0.54814631324591        1.83174241957190
H           -7.22789023413022       -0.37951133180832        1.90138563580670
H           -6.65315158851815        1.04867926573173        1.76677868659319
O            4.22722441301417       10.76371252670428        0.66519546490118
H            4.09195071466416        9.85984430896610        0.96752057552701
H            3.73857070294111       10.85846132332949       -0.15853514768593
O            2.34813432785389       -4.46218810901719        0.03218106597578
H            2.38346280241190       -5.07327306044230       -0.71059536917948
H            1.58797739357194       -3.88660580148711       -0.12263962781073
O           -6.79022936948300        5.70689355060673       -1.54897211058515
H           -6.11478569685512        5.04688283367406       -1.36236031315196
H           -6.90649015998607        6.22315542220522       -0.74570340995910
O            5.46358555177307        4.15977838534239       -0.69913869808141
H            5.51375854334579        5.07196134195819       -0.39819163596248
H            4.56330933668157        3.86270707969863       -0.53162245891573
O           -3.60707277114315       -4.68819903903202       -1.34202948219224
H           -3.92084981075236       -4.36354825233790       -2.19199118467765
H           -4.36208112991837       -5.09782276923364       -0.90791906988732
O           -3.86206730373710       10.15745304790011       -3.38626093788473
H           -4.00883891019452        9.33025661446345       -2.91697153553493
H           -3.02836514599262       10.06596045794681       -3.85777298250126
O            4.48631130323332       -3.00172848462826       -4.96009766861921
H            5.27725507341131       -2.99769322865387       -4.41224885571307
H            4.49557961576275       -2.19137086305986       -5.47960417449524
O           -6.06083060808215        0.05175270315802       -3.23411384154470
H           -5.34357229425092        0.21705654137287       -2.61364336770570
H           -6.86813018885781        0.37012906532030       -2.81883361176157
O            3.20410173213012        7.73056968483621       -3.71971361845409
H            3.68994810676945        7.04306499837972       -4.18595636620608
H            2.90689047537431        8.36073194832519       -4.38327242809499
O           -1.29633224876062       -1.67049786228916       -5.53818097131301
H           -0.84788445337857       -2.46641875530711       -5.23706311314946
H           -1.50473166315008       -1.15083915223013       -4.75545084840063
O           -3.03775566325304        6.09532107799543       -6.68742289319486
H           -3.95499878677942        6.30937535628256       -6.48923916277370
H           -3.04256673834973        5.58742489619551       -7.50490883254621
O            2.82666207086059        2.22309239077824       -5.44011777948413
H            1.99882885680484        1.78544527344343       -5.66073308959125
H            2.77606816813195        2.46043976000458       -4.50947097066293
O           -4.41240453420122        1.22148216592616       -8.53785896639542
H           -3.55482490836752        0.90404284863056       -8.83795388925818
H           -4.45061063755368        1.07823006773295       -7.58639134053433
O            0.76062831995856        3.18047069740773       10.52634493022943
H            1.69598673656649        3.35280909559821       10.37500649199757
H            0.33726854189369        4.03322090265457       10.66661261444975
O           -5.47635550054354        0.66990644615242       11.02779138201705
H           -4.81346666300554        1.32830030670917       10.79617202094732
H           -6.32440433842648        1.00735472136438       10.72229590590073
O           -0.15959080947625        8.27930073606895        8.56574792052700
H           -0.04841719647034        8.53817160807489        7.63557863785993
H           -0.95716908878869        8.72125647390518        8.87102016466049
O            5.42440941880502       -2.62816610175247        7.95806018400050
H            5.07917056605872       -3.40956122957115        7.51440625215366
H            4.91843807980186       -1.87588648955810        7.63447396457285
O           -7.97235007214318        4.90696618001140        8.66662462250861
H           -7.83805499027008        4.36174130205807        7.87286453129560
H           -7.66013747757610        5.78783527703234        8.43822267739391
O            5.09639706680187        6.71738136988008        9.26877902520303
H            5.70583144038090        7.40256109672790        8.97697390654239
H            4.20698548930034        7.06451175209809        9.14588662690848
O           -2.64282844436020       -5.72892843337566        6.88921226721160
H           -2.02801183822434       -5.09427053708522        7.27099591195644
H           -3.51546984923862       -5.52017573104592        7.23713299644714
O           -5.33281059294725       10.39882346350077        6.60907979781813
H           -4.66568143990789        9.76584581262517        6.32496798982357
H           -5.35728543406732       11.09395548381199        5.94391030942088
O            9.57926909076270       -1.12473433722314        4.52892493361457
H            9.53757934544144       -0.21131567759778        4.82882157116749
H            8.90976091514073       -1.61069039415444        5.02082390903432
O           -9.96443366694684       -1.62709703902191        5.97330790589290
H           -9.05865795527639       -1.94821011490635        6.02770498088394
H          -10.26835148704383       -1.79761317257114        5.07632357924285
O            5.43631780296630       11.08226578476528        5.80151161867066
H            5.65364359791437       10.27464465785983        5.32492793336154
H            5.35714356740190       11.78129759979438        5.14496689035045
O            3.41241300303910       -7.08703718318301        4.89963705710445
H            3.38061630835162       -6.90467133299884        3.95507793795412
H            2.50185857465582       -7.10292235813576        5.21143977199738
O           -8.90394712817977        7.64045135201226        3.21036034000283
H           -8.14158534070872        7.94991503696984        3.70984420208834
H           -9.36607686449151        8.42093968067890        2.88954668053030
O            9.25061551507678        4.16779933789756        2.90029604233844
H            9.15569982895024        3.58151360625034        2.14287238241281
H            8.36646438015124        4.31519655665609        3.25144192084526
O           -6.96364065533833       -5.14748974779299        3.12855338066441
H           -6.68755469733188       -6.06764486974674        3.07189133357983
H           -6.20814563234354       -4.64876945465896        3.45673031696902
O           -1.08831610960416       11.40567024286632        0.91503956388172
H           -0.46985052164695       11.83055355902906        1.51779995118221
H           -1.07938566295928       11.91175595907723        0.09670866158329
O            7.77860518203858       -2.84102834305337       -0.40654625361127
H            8.36439683031739       -2.69015968030751        0.34166520988865
H            7.03013730859103       -3.35053798944617       -0.08023372462567
O          -11.07085494881506        2.41876773292147       -1.72894364828870
H          -10.97280373342428        1.69912685184534       -1.09745041629998
H          -10.76173103010111        3.21900755768859       -1.29231588160947
O            8.08171633795629        9.50883004163469       -2.77392928592166
H            7.60412726125133        8.83668687197791       -2.27703603350024
H            7.78466485330999       10.36332049832095       -2.44616678703930
O           -0.23118583697796       -8.94527513450429       -2.54108971070705
H            0.23059028990295       -8.43958052231838       -3.21744143246278
H           -0.72839070307716       -8.31583795414340       -2.00918166083991
O           -8.27147983534117       11.26324206789880       -0.67656403553923
H           -8.18796800120728       10.79065473232237       -1.51081869365107
H           -7.37977664613828       11.38752710102288       -0.33591061428898
O            8.02667559487620        0.86318657476028       -4.38131879341730
H            8.53910203971186        0.36551403652894       -3.73687886665966
H            7.27706451905746        1.24178829550612       -3.91056942173072
O           -8.60091744170907       -4.92606466110199       -3.09913967498609
H           -8.42627755416597       -5.51106252013427       -3.84269870187587
H           -8.44571862746378       -4.02756428283533       -3.40790217060506
O            1.41900432568158       12.94558003555470       -3.75116952351032
H            2.24208518004750       13.02727099199453       -4.24275274067743
H            0.71343532008557       12.84762768687438       -4.39817714694986
O            2.87397508656293       -5.30792324592201       -5.48752345762934
H            3.20469364589148       -5.53660366589294       -6.36144902093746
H            3.36313918947976       -4.51439963856652       -5.21778620366145
O           -8.35029506766916        4.49361124795332       -6.20904875263158
H           -7.82070526389558        3.81280721362471       -5.78190930813900
H           -9.06169733058800        4.71434200889561       -5.59970864112355
O            7.38120717253982        5.87374969238639       -6.92290345411702
H            7.68118454059930        5.02354498361959       -6.58628173541918
H            7.83806938661323        6.55353685075941       -6.41760311271168
O           -5.98547708683866       -3.91118804139106       -7.47186492591299
H           -5.08235226197682       -3.59966113760339       -7.58782393060388
H           -6.56557627606072       -3.20996598397267       -7.78525060768224
O           -1.04899311669810       10.73097767712001       -8.17494376229648
H           -0.54230275525730        9.91614464686248       -8.25071875568563
H           -1.96634388471571       10.50808788853462       -8.36094989602164
O            6.13400712615935        0.28572590331976       -9.22777322590070
H            6.95830949113149       -0.08591217974889       -8.89851849423787
H            5.94491287421595        1.06317728840267       -8.69274354561899
O           -6.80147742007358        0.93173537840201      -10.06889410691146
H           -5.96437681819365        1.02237338442579       -9.58361827229484
H           -7.26989655132231        1.76213448054725       -9.94174059603983
O            2.13648230284430        6.17612025465370       -8.79616945200815
H            3.02431416949663        5.83407352476152       -8.65185967543045
H            1.54981702216508        5.69652620185596       -8.20283900372884
O            0.96834559618266        0.94020457411615      -10.26231430841429
H            1.44032804032490        0.15177984546966       -9.97610237480906
H            1.63231065870014        1.60475312783763      -10.47086249395393
O 2.343724488728213 2.5706319876636163 13.718123953145506
H 3.243724488728213 2.5706319876636163 13.718123953145506
H 2.050713149716772 3.4215987057030013 13.718123953145506
O -4.480667083312053 -0.9164134609450016 13.047476442005848
H -3.580667083312053 -0.9164134609450016 13.047476442005848
H -4.773678422323494 -0.06544674290561647 13.047476442005848
O -0.09896937812031759 9.124966441473358 12.37682893086619
H 0.8010306218796824 9.124966441473358 12.37682893086619
H -0.3919807171317586 9.975933159512744 12.37682893086619
O 4.000587895853901 -3.5267870657966878 11.70618141972653
H 4.900587895853901 -3.5267870657966878 11.70618141972653
H 3.7075765568424597 -2.675820347757303 11.70618141972653
O -9.137823647696514 4.067729730283845 11.035533908586872
H -8.237823647696514 4.067729730283845 11.035533908586872
H -9.430834986707955 4.91869644832323 11.035533908586872
O 7.232712571496336 7.600355742888195 10.364886397447215
H 8.132712571496336 7.600355742888195 10.364886397447215
H 6.939701232484895 8.45132246092758 10.364886397447215
O -3.2813778181227584 -7.1279793032261685 9.694238886307556
H -2.3813778181227585 -7.1279793032261685 9.694238886307556
H -3.5743891571341995 -6.2770125851867835 9.694238886307556
O -5.573789917588595 12.004514807295237 9.0235913751679
H -4.673789917588595 12.004514807295237 9.0235913751679
H -5.866801256600036 12.855481525334623 9.0235913751679
O 9.796122836253765 -1.253109215704621 8.35294386402824
H 10.696122836253766 -1.253109215704621 8.35294386402824
H 9.503111497242324 -0.4021424976652359 8.35294386402824
O -11.397916435602943 -1.8559666796922274 7.6822963528885815
H -10.497916435602942 -1.8559666796922274 7.6822963528885815
H -11.690927774614384 -1.0049999616528422 7.6822963528885815
O 4.412637717432153 13.440885882724732 7.011648841748922
H 5.312637717432153 13.440885882724732 7.011648841748922
H 4.119626378420712 14.291852600764118 7.011648841748922
O 3.0227093703486845 -9.215663558477793 6.341001330609263
H 3.9227093703486844 -9.215663558477793 6.341001330609263
H 2.7296980313372434 -8.364696840438407 6.341001330609263
O -11.626200814480509 8.917546516146768 5.6703538194696055
H -10.726200814480508 8.917546516146768 5.6703538194696055
H -11.91921215349195 9.768513234186154 5.6703538194696055
O 11.946351442439985 5.345222468995546 4.999706308329946
H 12.846351442439985 5.345222468995546 4.999706308329946
H 11.653340103428544 6.196189187034931 4.999706308329946
O -8.234973572814006 -8.183805594347344 4.3290587971902905
H -7.334973572814006 -8.183805594347344 4.3290587971902905
H -8.527984911825447 -7.332838876307959 4.3290587971902905
O -2.387631718111703 15.793148782815383 3.65841128605063
H -1.487631718111703 15.793148782815383 3.65841128605063
H -2.680643057123144 16.644115500854767 3.65841128605063
O 9.63635169450507 -6.119102887608064 2.9877637749109724
H 10.53635169450507 -6.119102887608064 2.9877637749109724
H 9.343340355493629 -5.268136169568679 2.9877637749109724
O -14.26283735449329 2.0086987289073206 2.317116263771314
H -13.362837354493289 2.0086987289073206 2.317116263771314
H -14.55584869350473 2.859665446946706 2.317116263771314
O 9.024502776048273 12.222126008809006 1.6464687526316557
H 9.924502776048273 12.222126008809006 1.6464687526316557
H 8.731491437036832 13.073092726848392 1.6464687526316557
O -1.3084859503126371 -11.146617630018483 0.9758212414919991
H -0.4084859503126371 -11.146617630018483 0.9758212414919991
H -1.6014972893240782 -10.295650911979097 0.9758212414919991
O -9.482834176803543 13.126332486414864 0.3051737303523389
H -8.582834176803543 13.126332486414864 0.3051737303523389
H -9.775845515814984 13.97729920445425 0.3051737303523389
O 12.935083674706332 0.7395235557118305 -0.3654737807873213
H 13.835083674706333 0.7395235557118305 -0.3654737807873213
H 12.642072335694891 1.5904902737512157 -0.3654737807873213
O -11.90573825251031 -5.243987224479181 -1.036121291926978
H -11.00573825251031 -5.243987224479181 -1.036121291926978
H -12.198749591521752 -4.393020506439796 -1.036121291926978
O 2.3108147996040582 15.83927453630589 -1.7067688030666366
H 3.210814799604058 15.83927453630589 -1.7067688030666366
H 2.017803460592617 16.690241254345274 -1.7067688030666366
O 6.029806677797655 -9.128734910326479 -2.377416314206295
H 6.9298066777976555 -9.128734910326479 -2.377416314206295
H 5.736795338786214 -8.277768192287093 -2.377416314206295
O -13.376511644041331 6.623019263933664 -3.0480638253459524
H -12.47651164404133 6.623019263933664 -3.0480638253459524
H -13.669522983052772 7.4739859819730485 -3.0480638253459524
O 11.259842521612134 8.084457389474839 -3.718711336485612
H 12.159842521612134 8.084457389474839 -3.718711336485612
H 10.966831182600693 8.935424107514224 -3.718711336485612
O -5.6628454785677 -9.34950689173801 -4.389358847625271
H -4.7628454785677 -9.34950689173801 -4.389358847625271
H -5.955856817579141 -8.498540173698624 -4.389358847625271
O -4.958383986950944 14.481784575782697 -5.060006358764928
H -4.058383986950943 14.481784575782697 -5.060006358764928
H -5.251395325962385 15.332751293822083 -5.060006358764928
O 10.260097674983394 -3.1761228064363625 -5.730653869904588
H 11.160097674983394 -3.1761228064363625 -5.730653869904588
H 9.967086335971953 -2.3251560883969775 -5.730653869904588
O -12.279369532675334 -0.4884562745604222 -6.401301381044243
H -11.379369532675334 -0.4884562745604222 -6.401301381044243
H -12.572380871686775 0.362510443478963 -6.401301381044243
O 5.600300013626349 12.328904524661358 -7.071948892183903
H 6.500300013626349 12.328904524661358 -7.071948892183903
H 5.307288674614908 13.179871242700743 -7.071948892183903
O 1.2137923658278973 -8.414993094510724 -7.7425964033235655
H 2.1137923658278974 -8.414993094510724 -7.7425964033235655
H 0.9207810268164562 -7.564026376471339 -7.7425964033235655
O -9.07878628977147 9.079624289537632 -8.413243914463221
H -8.17878628977147 9.079624289537632 -8.413243914463221
H -9.371797628782911 9.930591007577018 -8.413243914463221
O 9.334453332048014 3.399827572016088 -9.08389142560288
H 10.234453332048014 3.399827572016088 -9.08389142560288
H 9.041441993036573 4.250794290055473 -9.08389142560288
O -7.037899022161637 -4.30835174227682 -9.754538936742538
H -6.137899022161637 -4.30835174227682 -9.754538936742538
H -7.330910361173078 -3.4573850242374347 -9.754538936742538
O -0.6322604105386284 11.165551987103061 -10.425186447882197
H 0.26773958946137166 11.165551987103061 -10.425186447882197
H -0.9252717495500693 12.016518705142447 -10.425186447882197
O 4.488060613310253 -3.119995110098981 -11.095833959021858
H 5.3880606133102535 -3.119995110098981 -11.095833959021858
H 4.195049274298812 -2.269028392059596 -11.095833959021858
O -7.225639693805768 3.177818936567055 -11.76648147016151
H -6.325639693805767 3.177818936567055 -11.76648147016151
H -7.518651032817209 4.02878565460644 -11.76648147016151
O 3.4378445689949326 5.691519097958203 -12.43712898130117
H 4.3378445689949325 5.691519097958203 -12.43712898130117
H 3.1448332299834916 6.542485815997588 -12.43712898130117
O -1.2143463368940393 -0.3985487230401854 -13.107776492440829
H -0.31434633689403924 -0.3985487230401854 -13.107776492440829
H -1.5073576759054803 0.45241799499919977 -13.107776492440829


