%chk=maltolate_optimized_Reduced_Structure.chk
#p B3LYP empiricaldispersion=gd3 scrf=(cpcm,solvent=water) scf=(maxcycles=500,xqc,maxconventional=1000) 6-31+G(2df,p)

Reduced_Structure

-1 1
C            1.86448748041485       -1.51113818109012       -0.97124075537329
C            0.44366472388192       -1.50182839062458       -0.49608224883732
C           -0.27288626521902       -0.34209588396899       -0.24041128660263
C           -1.67283023773614       -0.49125769125412        0.21931495195372
O           -2.36260663502871        0.53194338907992        0.44977225153611
C           -2.15344727039735       -1.82804777224086        0.37483422778489
C           -1.34391559248062       -2.88119022326096        0.09694880497586
O           -0.08781423933242       -2.75867980106307       -0.32540867029797
O            0.20376337027376        0.83428611550801       -0.38515722653141
H            2.51227683483747       -2.03128246461024       -0.26399419272116
H            1.95217371306498       -2.00653987239351       -1.93952945808221
H            2.18314121960510       -0.47682987040903       -1.06192713019409
H           -3.16442343970557       -1.99349707038983        0.71347866806111
H           -1.64078513367764       -3.91560092931267        0.19156394925702
Fe          -1.33954341111968        2.27437717088849        0.15824789891188
C            1.14505018051586        6.34812428308295       -1.60138187566206
C            0.22478235276511        5.36731041239382       -2.26159603760705
C           -0.36927296334369        4.30489418388633       -1.59646158499552
C           -1.24955416619528        3.41150593226142       -2.38363972077767
O           -1.80921444098275        2.43880637419450       -1.82072091173858
C           -1.40112195754309        3.72594757820634       -3.76952672690064
C           -0.75987554444731        4.79772560178091       -4.30047272307047
O            0.03124915233654        5.60895124456278       -3.60179304964538
O           -0.20093055736100        4.06103111804485       -0.35368961793957
H            2.13308989161175        6.33299089128089       -2.06420400144376
H            0.75349138364552        7.36436070837693       -1.67036702446797
H            1.22951576534917        6.06117384185624       -0.55721038700148
H           -2.02907422234310        3.10548284581989       -4.38982989030297
H           -0.82925072563640        5.09428253707057       -5.33698356707485
C           -0.79957826647587        2.69514331968475        5.19514689590218
C           -1.80085305004944        3.26892741765564        4.23999383244346
C           -1.77917164623032        3.03441094938328        2.87317665348424
C           -2.83173401537462        3.67501221641950        2.05179924011287
O           -2.85323678101267        3.48315050797954        0.81146753084201
C           -3.77344782007454        4.49315110980676        2.74908864672579
C           -3.68185525316821        4.64403617504854        4.09467470750084
O           -2.74398401330381        4.06778343543059        4.84325927840170
O           -0.91001743697099        2.29968501118418        2.29273300348426
H           -0.26453142351733        3.48514886577241        5.72402561052000
H           -1.28226993807534        2.05728588724409        5.93703485544455
H           -0.09642628833405        2.10676350565555        4.61316220514831
H           -4.55845842862544        4.98815394927397        2.19879700862590
H           -4.35867839453540        5.24384479178221        4.68557828614935


