%chk=kojate_original_Oxidized_Structure.chk
#p B3LYP empiricaldispersion=gd3 scrf=(cpcm,solvent=water) scf=(maxcycles=500,xqc,maxconventional=1000) 6-31+G(2df,p)

Oxidized_Structure

0 2
 C                  1.43475838   -0.26579025   -0.79453263
 C                  2.06169697   -1.23313935   -0.06965385
 O                  1.35868422   -2.04563829    0.91669199
 C                  0.13751065   -1.49149011    1.47797893
 C                 -0.56175371   -0.54574225    0.81362060
 C                  0.02155025    0.10757343   -0.39194955
 O                 -0.73147772    0.92870711   -0.95586222
 O                 -1.70455966   -0.13248633    1.10928510
 C                  3.56192480   -1.48628289   -0.30805451
 O                  4.19279499   -0.26785591   -0.71096703
 H                  1.92485496    0.21976677   -1.61241995
 H                 -0.21695203   -1.84432599    2.42389811
 H                  4.01222687   -1.83900987    0.59621962
 H                  3.68193910   -2.22113149   -1.07649066
 H                  4.08511866    0.39144748   -0.02152895
 Fe                -2.23601264    1.26017444    0.03900474
 C                 -3.74236426    2.85931895   -3.38802140
 C                 -4.40444804    2.16237805   -4.35249569
 O                 -4.91862944    0.81643365   -4.12547033
 C                 -4.29453048    0.04313719   -3.06429490
 C                 -3.63971577    0.65791149   -2.05541067
 C                 -3.34963563    2.11218664   -2.12869465
 O                 -2.78450171    2.57692599   -1.11918191
 O                 -3.22671632    0.11876151   -1.00777463
 C                 -4.62849582    2.82218886   -5.72583191
 O                 -3.55507728    3.72596882   -6.00124882
 H                 -3.49983941    3.89332605   -3.51806381
 H                 -4.36351033   -1.02455784   -3.07730016
 H                 -4.66211757    2.06701377   -6.48311658
 H                 -5.55373096    3.35954900   -5.71666719
 H                 -2.72495979    3.24385127   -6.00947157
 C                 -1.37706392    3.71988417    3.16549270
 C                 -2.18867266    3.92010854    4.24046315
 O                 -3.40241105    3.14052713    4.45565193
 C                 -4.00127362    2.51771408    3.28657684
 C                 -3.26065496    2.25579425    2.18769139
 C                 -1.88219911    2.80720930    2.06519943
 O                 -1.27618451    2.47132774    1.02651229
 O                 -3.62095190    1.57668143    1.20139763
 C                 -1.80566914    4.99878886    5.27068498
 O                 -1.08737028    6.04846188    4.61713064
 H                 -0.42173821    4.19667983    3.09535958
 H                 -5.03831292    2.25455423    3.30059007
 H                 -2.69302109    5.39752501    5.71623633
 H                 -1.18967274    4.56410575    6.02996027
 H                 -1.64003998    6.43845798    3.93591170



