%chk=deferipronate_solvated_3_optimized_Oxidized_Structure.chk
#p B3LYP empiricaldispersion=gd3 scrf=(cpcm,solvent=water) scf=(maxcycles=500,xqc,maxconventional=1000) 6-31+G(2df,p)

Oxidized_Structure

0 2
C            0.68316999942082        3.93419999942713        0.76402000108011
C            0.34206000017580        2.68796999973231        0.22196999919559
C           -0.50781000062560        2.64854999949027       -0.98362999921968
O           -0.82140999997179        1.52340000070131       -1.46341999958036
C           -0.91803000049173        3.89615000071534       -1.53144000151905
C           -0.53904000100142        5.08181999522944       -0.94726999901589
N            0.23701000080843        5.11455999917407        0.16429000227539
C            0.54842000229184        6.39583999903264        0.77694000114968
O            0.72609999975499        1.56781999982986        0.71874000018113
H           -1.53617999986240        3.90748000013320       -2.42231999929645
H           -0.84251000014179        6.04478999789853       -1.34183999999769
H            1.62610000018655        6.50844999999042        0.93159000059337
H            0.20893999998517        7.20108999868974        0.12017000157646
H            0.05088999930866        6.50352000030380        1.74920999940987
Fe          -0.00082999998720       -0.01108999972467       -0.36251999976188
C           -3.76777999867446       -1.36876000056653        0.76389999880810
C           -2.50950000066346       -1.05772999906667        0.23184000208630
C           -2.04679999876590       -1.78689000058925       -0.96408999765471
O           -0.91779000098407       -1.49497999998150       -1.44895000027942
C           -2.91633000057211       -2.77753000069728       -1.49870000228581
C           -4.13966000246936       -3.02728000841242       -0.92316000335905
N           -4.56700000186170       -2.34785999991179        0.16912000280056
C           -5.84924000081968       -2.68971999979868        0.76233999658644
O           -1.73087000029585       -0.16407999991400        0.72472000012859
H           -2.60945999984034       -3.33471999875835       -2.37628000033253
H           -4.81975999959312       -3.77653999986046       -1.31083000056765
H           -6.47436000004471       -1.79944999992326        0.88920999985311
H           -6.37370999986718       -3.39067999901031        0.10613999877549
H           -5.72079000026298       -3.16053000133111        1.74627999906773
C            3.08466999884880       -2.55782999989754        0.76272000064916
C            2.17157999968415       -1.64173999928268        0.22423000119538
C            2.55859000048036       -0.88139999815547       -0.97932999972970
O            1.73037999917863       -0.06078000093096       -1.46469999977249
C            3.85094000033206       -1.12992000136908       -1.51965999896892
C            4.69706999982196       -2.04068000212403       -0.93205000121045
N            4.33816000034078       -2.73941000011758        0.17331000085674
C            5.29446000049984       -3.65091000054154        0.78249999817669
O            1.00658999936237       -1.42484999998278        0.71858000049439
H            4.16869999969588       -0.59194000013526       -2.40600999951121
H            5.68939999966656       -2.24201999978419       -1.31828999984127
H            4.88490999993670       -4.66269000005364        0.86242000020083
H            6.19453000029123       -3.69151999999834        0.16693000010402
H            5.57572000006156       -3.31693000041960        1.78775000036967
C           -4.28099999912619       -0.63984000117974        1.96977000160510
H           -3.48139999985348        0.01843000015586        2.31116000025897
H           -5.16084999956827       -0.01655000035253        1.75419000005217
H           -4.55212999993063       -1.30955999975605        2.79528000049410
C            1.53535000062811        4.01618999993502        1.99576999866234
H            1.03293999972917        4.52084000023929        2.83300999969642
H            1.75653000002665        2.99201999984390        2.29994999984082
H            2.49140000045206        4.53544999959763        1.82960000016056
C            2.72322000030035       -3.36325000047619        1.97490000095462
H            3.38754999958829       -3.17927000014243        2.82939999984664
H            1.71306999987885       -3.07123000007115        2.26308999988626
H            2.72495999995149       -4.44677999985578        1.78956000008032
O            5.07725452927598        1.19455122595786        6.01939011126213
H            4.38643229527964        0.80685055982843        5.47301215143426
H            5.17274536351639        0.63032950729086        6.79244572425524
O           -0.38786443260070       -0.61380255668451        5.86598324218344
H           -0.76429946008531       -1.41325500877331        5.48635802915792
H           -0.09900936727539       -0.07503661320852        5.12213585500870
O            3.12756124793166        5.59740006648431        7.64358170294664
H            3.86242882060069        5.26495791366075        8.16848240946638
H            3.34637673732665        5.43932824091740        6.72012553837527
O            2.21711890847458       -4.70726559484517        7.84092342008347
H            2.12193090912402       -4.85419266479391        6.89476541840314
H            1.33039754085805       -4.64824420927122        8.21051622401020
O           -5.36589501205578        0.94439031303446        7.64368173472870
H           -4.79586486213767        0.53224408495107        6.98702143008505
H           -6.04798567030218        1.42536555023681        7.16476794406378
O            8.07815677979948        5.70018635514444        5.06183985252537
H            8.70134373055891        5.95517224109190        4.37439347973155
H            7.50590328330909        5.02164680718300        4.68982268031389
O           -1.15986364671237       -7.06759626134550        3.81355064768985
H           -0.48127508876692       -7.59125364720769        3.37642661694006
H           -1.19686543217240       -6.22136565966194        3.35758990645237
O           -3.45622440679730        4.66246819365061        4.78533746656277
H           -3.22050925170698        4.07284874737943        4.06252929442496
H           -2.84245872661168        4.48185185720550        5.50398508828793
O            6.67704460014185       -3.14083892111378        3.99498851997835
H            6.58967115080740       -3.65743094620302        4.80225845244111
H            7.38721833496211       -2.50948604750295        4.14655029218922
O           -5.75623246490206       -3.65792497787345        4.14734710387769
H           -5.12168335857028       -4.23779154832769        4.57957142825868
H           -6.49984479814721       -3.58253495139490        4.76534628021499
O            3.91364514023604        6.86836626629826        1.75385338050637
H            4.65711642365055        7.04418401073200        1.16906682687000
H            4.05071210367176        7.39867268717094        2.54534427878587
O            3.77527805300497       -9.81508745723977        2.00012952562646
H            3.61444729929911       -9.44313782979865        1.12717436081552
H            3.29972379895681      -10.65024020877970        2.04297451275476
O           -6.01730485706640        5.01312532318527       -0.34091106567467
H           -5.70401315523353        4.10804045867162       -0.43193704080150
H           -5.35607538007711        5.48794499408955        0.17206682475151
O            6.91232425852539        2.44054736648481        0.93365060807456
H            6.29542413964458        2.69236072115358        0.24048910094308
H            6.45456803778942        1.80432053041454        1.49138584248497
O           -4.98347824114712       -8.51041319992830        0.81368220550185
H           -4.09913096178903       -8.47050425753425        0.43709208691647
H           -5.09375995700617       -7.72659038161538        1.36120388754589
O           -0.81318649782624        8.65492129273510       -1.54740174477809
H           -0.27916466318461        9.11879415262475       -2.20009596305774
H           -1.55019112171036        9.23416427296943       -1.32861240067841
O            8.00489140420774       -3.48074523262962       -1.43590925346369
H            8.81586103557367       -2.99669015586710       -1.25105566443117
H            8.23077282418668       -4.17149871236534       -2.06699783766215
O           -5.59256789237395        1.08854039355541       -4.42506896642096
H           -4.76465156907660        1.14324955138816       -3.93781406887996
H           -5.95227384131726        0.21142995500619       -4.26230579455883
O            4.28068836761736        4.72521953052198       -3.53792617260898
H            3.71972723092258        3.97036302288259       -3.33389844848438
H            3.85123585722362        5.49954606398254       -3.16210127985900
O            0.09572089416613       -7.52241009319448       -1.42331500813617
H            0.21142378518988       -6.61222192088927       -1.13325672515430
H           -0.37588953357160       -7.49189974441694       -2.26113085485823
O           -4.81673294357027        6.64816760362055       -5.12911884285420
H           -5.33091452477894        5.88783832855753       -4.83978797536083
H           -4.32073313227988        6.95757698300949       -4.36469223301289
O            8.15932096649251       -0.31717383811031       -5.91082687658955
H            7.82596494626470       -0.34099803995743       -5.00880481064803
H            7.98512259308235        0.56414523406065       -6.25520061206176
O           -1.93827007235009       -1.66368507664109       -7.59538635752610
H           -1.11318258668981       -1.18758726183787       -7.72985167755268
H           -2.13182978696600       -1.61661808214646       -6.65387048048188
O            0.66100244140579        4.00814629147553       -7.53398148721097
H            0.86756357345249        3.07346135924635       -7.63178582803601
H            0.41762110614541        4.14033034585180       -6.61248001635844
O            1.94926717305212       -4.14344264761499       -5.48846741718956
H            2.41919474849511       -3.33040958426536       -5.69663456508194
H            1.38058285756661       -3.94494131919801       -4.73807684286982
O            0.42899311180238        0.66578355148454       -3.74770056416974
H            1.05399524828933        0.28839893967002       -3.10069798367074
H           -0.26441727215565        0.94970880344724       -3.12490379122065
O            1.23625420131503        0.82502279221272       10.51397681163192
H            1.72676129470393        0.21295264405411        9.95624195132186
H            0.30508100718513        0.60079195565207       10.42228541221086
O           -3.28239142719003       -4.54953143177755        9.00066854858146
H           -3.20398104312456       -3.61697290101158        8.77617561209521
H           -4.21242548404756       -4.71746095552423        9.17971049098397
O            0.43083794738748        5.91916480339716        8.51393033238560
H            1.34916430289690        5.90286178718817        8.20013733254354
H            0.30168183165881        5.09497842593001        8.99258572651345
O            4.46690611273523       -3.43858548310277        9.04553993676667
H            4.61590311355353       -3.98626182868772        9.82204282291637
H            3.71399198460280       -3.83775362120924        8.58004375461605
O           -5.79722973124410       -0.06531790004697       10.30058937174214
H           -5.62967221974109        0.24459203680097        9.39613865388649
H           -5.93628947054635        0.74022785048747       10.82132347161028
O            8.58694345782878        5.70577809844330        7.87232250403710
H            9.09713075316683        4.89256770433993        7.93420529450701
H            8.36627516191929        5.81108879134695        6.93294722503768
O            0.50196881900352      -10.17275971007218        7.71251180644626
H            0.89360954067397       -9.33947000566984        7.43113562985971
H            0.16662719037030      -10.60382954955730        6.92050650117284
O           -1.58441584865548        9.71447152679291        4.99693157144482
H           -0.92229412841395        9.16557228600044        5.42885217305780
H           -2.32180847347008        9.13934445267842        4.77117095627204
O            9.50605222396463       -1.42479564377619        8.16672777574987
H           10.12372505860691       -2.14481932343681        8.36939640724151
H            8.73075600790134       -1.58407568065705        8.71358214304644
O           -7.72133175744502       -3.63817622406332        6.24172987672314
H           -7.96296868019185       -2.89421762469037        6.80175446662070
H           -8.14945398565707       -4.41734576744584        6.60946566244391
O            4.13369376235196       10.39296293233966        6.17694630091779
H            4.92528236654961       10.55798414277061        6.71406659689628
H            3.42081988337084       10.23279041403315        6.80222761761335
O            4.17378186869059       -8.17223403252606        4.28982651572617
H            5.12877997261756       -8.08283286205133        4.35915412972677
H            4.01452466107541       -8.74207025173407        3.51997180328980
O           -8.81257237744095        3.28393203579819        3.50960423355639
H           -7.96276917121799        3.70806434940355        3.66426533547513
H           -9.30408212344031        3.85543026319241        2.91182195625262
O           11.32742474210314        1.72593281165172        4.06540930830049
H           10.86693213527873        2.02742611963584        3.27600007595080
H           10.65694932728737        1.40953522700191        4.67931577210822
O           -6.45592503498221      -10.90375650309420        1.26175887203847
H           -5.92805621956516      -10.10673276833137        1.08666641248401
H           -7.37026076009617      -10.65332061489949        1.10024219639958
O            1.87509069305423       12.23154302287554        1.68329619974826
H            1.92037551285602       11.40528770124185        1.19170437780328
H            1.75640310912868       11.99815488771575        2.60887912515365
O            8.80471710311136       -7.96546307074136        1.34934814655804
H            8.87839558451769       -7.05624856617638        1.65665731719222
H            8.08824123566586       -7.98626050731760        0.70709585366107
O          -11.16131363018606       -1.80709110971073        3.41743537729775
H          -10.58624216298564       -2.26648188859536        2.79717756858235
H          -10.73641639260000       -0.96995034500097        3.62959383295033
O            7.31284946943036       10.83109716411003        2.05515586474007
H            7.54432058541485       10.47247949071342        2.91775437509045
H            6.50406677486238       11.33932737014005        2.17195506791811
O            1.91928440505221      -12.70193066945340       -1.96483048542324
H            1.57281055399227      -11.86415455405921       -2.28821434667830
H            1.48484191679917      -13.39522680452945       -2.47025079472197
O           -6.09358338013247       10.36402761531259       -1.41172946805416
H           -6.74037544792888        9.65193086423115       -1.43825911686262
H           -6.25951398193635       10.91972966017129       -2.17928588250371
O           11.56391501478955        0.98966390544967       -1.52428286761336
H           12.08610408568108        1.72905287834382       -1.19875080337009
H           10.66123814138956        1.30735254855866       -1.62517535835872
O           -7.65414718267563       -4.57988693193145       -1.49663304701465
H           -7.98198944111771       -5.47922639712505       -1.39665537246487
H           -8.32859053796556       -4.09134298207171       -1.97856647957033
O            4.43744710079479       10.10898212058810       -2.51597107117659
H            5.37048060466280       10.07627171085602       -2.28307184329218
H            4.28807492584633       10.94949482836382       -2.95968405738232
O            5.11027898685930       -7.83362496510154       -2.97169844221593
H            4.61274787863723       -8.45518014863457       -3.51187433935531
H            4.65139495007717       -6.98961489050999       -3.02131998837539
O           -9.86424419581903        4.12575237457775       -4.87917342475170
H           -9.60381878700692        3.76450319181695       -5.73211984948486
H           -9.43230505029985        3.59031213561615       -4.20623903258375
O            9.69615767458370        4.75951931779531       -4.75893151242515
H           10.08349642347583        5.09621060917178       -5.57256529434511
H            8.75262848699002        4.94433265612711       -4.79906857040103
O           -2.47343487105648       -7.14178741744851       -6.47127910222634
H           -2.44317090730093       -7.77450419342987       -7.19523055657670
H           -2.03211288639880       -6.34405263201320       -6.77976946453342
O           -1.01453812633970        9.25062204475620       -8.21670303041912
H           -0.61461974278312        8.37661692093820       -8.26979948585156
H           -1.83768465702265        9.15390677627895       -7.72783290138425
O            8.60503116972951       -2.72703916302047       -7.38430352846317
H            9.45260707602736       -3.03249063746316       -7.04680961012475
H            8.41471260900281       -1.89861278456183       -6.91570524525266
O           -6.65765671391255       -3.92918489184483       -6.67914544438653
H           -6.00753804393444       -4.06194123123534       -5.98207758524654
H           -6.17334213062292       -3.89157251473533       -7.50966655899538
O            6.07521263284543        4.04681414731870       -8.69689126102335
H            5.40374998157255        4.10993454451253       -8.01057061913758
H            5.61306599810354        3.94518622012858       -9.53468232829770
O            0.96998463875978       -5.45129954573547      -10.41413173349487
H            1.54648701331810       -6.00065433895933       -9.87329836554816
H            1.04760591075978       -4.55049323558735      -10.08393455699856
O           -4.16967871403427        3.05584564454974       -9.34555808199269
H           -4.18677303809689        2.22737325771416       -8.85627745905436
H           -3.99183586994820        3.75226650877485       -8.70582278464242
O            3.50984180256381       -0.52855092507964       -9.38307205092086
H            4.38859401541404       -0.70362862931362       -9.03141751797169
H            3.62638304235254       -0.20011366629081      -10.27996480283425
O            3.81722300880430       -1.75022590727206       14.28638137398982
H            4.11587614061787       -1.00110038009786       13.76136455348890
H            2.85580122900154       -1.75870555515601       14.24097282412391
O           -1.79360436809318       -2.31994879737652       13.58733462362257
H           -1.61954070041069       -3.20980362057109       13.26408660387197
H           -2.55906608398943       -1.98945274556935       13.10639080317854
O            1.55560696639490       10.15269251610189       11.28183848422385
H            2.14343943805999        9.39587751999582       11.19163358454395
H            0.65781140509618        9.82455045855206       11.16941991112850
O            5.47618729662412       -6.63391987319193       13.67774470411443
H            5.97257479954137       -5.86973794402535       13.98720990903482
H            4.54362279450367       -6.43022417151255       13.80255897108552
O           -6.19996614211938        2.53894824866691       11.47913565868285
H           -5.49090206094477        3.18943266505415       11.45491366316589
H           -7.01884711770674        3.00854331848199       11.29111099168848
O            7.77774371461897        5.12882416551185       12.99839853941997
H            8.54200578482251        4.75910383695979       12.54493316963429
H            7.28937599028688        5.64445572746736       12.34871406608396
O            0.11580021489106       -7.47182357017967       12.16182271683588
H            0.68050759839887       -8.22769882717341       11.97322589254569
H           -0.56498540663491       -7.45479688400374       11.48154684174580
O           -3.92950081920083        9.09087270673634        9.71610075224448
H           -3.43533532425283        8.33213596570908        9.38921710572747
H           -3.62175846979701        9.85944105573300        9.22548555210498
O           11.14649517847956       -3.65123861699873        8.88426028272543
H           10.95985102032296       -4.54425068296201        8.57745411691549
H           12.06235896435018       -3.63603062743212        9.17787044315434
O           -8.82218660748659       -3.99732228700656       11.39410176897348
H           -7.97308855062659       -3.87988599366260       11.83177519016113
H           -9.19487727922471       -3.11883641188060       11.26906128895079
O            6.42494684621794       10.78305912888219        7.82122474934432
H            6.88872947995937       10.01118887536678        8.16121368397149
H            7.06818833405742       11.49465332942387        7.74820524420845
O            5.73547484009494      -11.02368973813356        8.15705738261020
H            5.30104353408504      -10.24304076404523        8.51547486735793
H            5.09367689216024      -11.46702846301574        7.59341267094041
O           -8.48281353375598        6.17732123880152        8.20820023848916
H           -8.98382535082430        6.24706488072098        7.38970378941144
H           -7.68856545071459        6.70923301206125        8.09568768463221
O           13.23148479307726        2.71006540175859        8.96790679124669
H           12.69201209043649        1.91806431022764        8.87585230707892
H           13.41379712249134        3.02982027529602        8.07858519256193
O           -5.78995059247238       -8.59503069948987        6.37937425502638
H           -4.83995742989455       -8.47239453730225        6.47435836528645
H           -5.92150808308830       -9.26131752779357        5.69774874610456
O           -2.53345199436589       14.82839129853774        2.90024107660313
H           -2.57335676952955       13.92245228782909        3.22291204057915
H           -1.63930995083466       15.14487872522581        3.06306698540277
O           10.52262152044785       -8.67398010864636        6.63380352417804
H           10.39639682120268       -8.84870843192899        5.69584997607027
H            9.87785512211779       -9.20799779163402        7.10844774274942
O          -12.69292633168413       -3.24166564884242        5.34518179850109
H          -12.14310448136088       -2.77441001602897        4.69372586777251
H          -13.59134561335981       -2.92992772651571        5.20258077419030
O           12.45805182741719       10.84520058825416        2.65956820643437
H           12.15335102774249        9.94066327671487        2.53437744648936
H           12.00662477972901       11.38602122279798        2.00371613852097
O           -1.14478341950365      -12.22955909615600        2.67215186189975
H           -1.01249399706038      -12.40586267753100        1.73538101385100
H           -2.07327259254853      -12.00352170726893        2.78622765923892
O           -7.46328214935941        8.44501080120798        3.52027892336182
H           -6.74958042141729        8.97559904275872        3.15338311342693
H           -8.15616749259169        8.40447255196069        2.85362697070037
O           12.94970589178587       -2.76698715814931        1.51880359427780
H           13.67457887467384       -2.15695363817102        1.68583279757085
H           12.15201533688196       -2.35432780539029        1.86489803582652
O          -10.19767617636084       -7.12268167922055        2.42981062118485
H           -9.40055306545093       -6.77671572554554        2.84448855382384
H          -10.92827935149350       -6.93303816945318        3.02603168569030
O            4.76571406902674       15.34896427213015       -1.34572242411118
H            5.07987514281117       14.89786970086857       -0.55547032896539
H            3.80409758411305       15.34287810739711       -1.30812600786744
O            7.42973932870659      -12.39744748668532       -2.59524277620010
H            7.88438872538330      -11.61108075799608       -2.27693390622380
H            6.59611551250643      -12.45252296012375       -2.11683140935347
O          -11.17089312004365        6.67682735110241       -0.42546045959658
H          -11.75534031886582        6.08731845193108       -0.91181079469610
H          -10.33168724547650        6.68901220690872       -0.89677573345157
O           10.77903990438258        6.12546176162626        0.14565783877935
H           11.26452652863559        6.45179338916495       -0.61800832560985
H            9.93350370360105        5.79908520981012       -0.17812012679178
O           -3.16350323271676      -12.47107585803050       -2.54490734411326
H           -3.79598476020994      -12.93635688655255       -1.98869700986655
H           -3.61655445318260      -11.69829315423644       -2.89651035980488
O           -1.77281763543432       13.78868096850169       -2.17637247483473
H           -1.08726236734457       13.98393043413724       -1.52954618837588
H           -2.61411411385009       13.82210311970298       -1.71019514797974
O           12.68179620909338       -4.00426195442445       -3.70676883021276
H           12.98479125543802       -4.42045911943711       -2.89369527002079
H           12.81679216406516       -3.05661258352179       -3.60358316067572
O          -10.95286045358469       -1.03216427975136       -4.53149641142613
H          -10.29060655604867       -1.33645366746116       -5.16020240516931
H          -11.54834673692469       -0.44989449115470       -5.01319565436037
O            8.41170710002143       12.75922894361071       -4.67996934984016
H            7.93184256399374       13.53212882113054       -4.36528519447257
H            7.95235775767782       12.44117539630227       -5.46388170226807
O            3.48362987303008      -11.92430279730215       -6.64929507202617
H            4.22680924158028      -12.28433835261629       -6.15462245289362
H            3.82974674402777      -11.21798642569786       -7.20402315648604
O           -9.63869901034938        9.34704420915221       -5.12025644576558
H          -10.44386046077814        8.82365816563046       -5.05925370686185
H           -8.97503960549049        8.79463567526893       -5.54537215657590
O           13.54638720682481        1.10428117501477       -6.39680481521275
H           14.03681992611193        1.04264021910809       -5.57124004158407
H           12.61696273690342        1.19832093315721       -6.16418823188554
O           -7.44979986553013       -8.87032414277824       -4.70909005501140
H           -6.55176807640956       -8.53203780548150       -4.63413580756296
H           -7.94195863787154       -8.24205451072087       -5.24661091295917
O            4.29879284574527       10.45373162628372       -7.68652858346146
H            4.18431474001880        9.54865013682324       -7.37998704789325
H            3.43386336312876       10.76720317744208       -7.96819346346210
O            5.81944243095166       -7.06578453066636       -8.17087540256886
H            6.71401520123570       -6.89172315577984       -8.47877445490515
H            5.59270258243045       -6.35876277817577       -7.55823004053107
O           -8.89337378205243        0.68105991713301       -9.25719197200019
H           -8.37161815110485       -0.12601947611238       -9.20399868473811
H           -8.54381635418039        1.19170472631285       -9.99391358898172
O           10.28716973724235        6.68456149121615       -9.99097784408593
H           10.19601755755242        5.76075341593334      -10.24547354923442
H            9.41434990664334        7.08361394605244      -10.06414046109370
O           -1.39595813398483       -6.49539698519432      -11.61019748518508
H           -1.08509786772881       -6.82852442013638      -12.45703894127020
H           -0.61704796290870       -6.10934069768416      -11.17604068951237
O           -1.87197927947334        6.75334519190383      -12.94890556880009
H           -2.33286073529561        6.08190390408584      -12.43568580820653
H           -2.15059620796936        7.60928381224341      -12.60878415152643
O            8.20486223775593        0.15757186644606      -11.70757799487311
H            8.36638569008963       -0.78961712206109      -11.65510738195498
H            8.53200392101693        0.54316513948502      -10.88842262107088
O           -5.01479166634438       -2.19771251956700      -11.83009217800307
H           -4.54296129830754       -3.03593608349926      -11.80021445731122
H           -4.37498189818815       -1.50935700892171      -11.62208455462370
O            2.31159969590814        3.58215082913335      -12.87913411429973
H            1.92515004735642        3.99514636154069      -13.65724414665020
H            1.74242331939398        3.80114283125496      -12.13425169258373


