%chk=Fe_66H2O_wB97X-D_0_5.chk
#p wB97XD 6-31+G(2df,p) scf=(maxcycles=500,xqc,maxconventional=50) scrf=(cpcm,solvent=water)

Fe_66H2O_0_5

0 5
Fe           0.24126690370322       -0.43164707101944        0.45042064011631
O           -1.85545244219781       -1.05070905764774        1.63152672776722
O            1.84557792448799        0.62213219964773        1.96735165235816
O            2.36616427784138       -0.65251873592605       -0.79408053194417
O           -0.26325941930706       -0.05840504927163       -1.96436035971224
O           -0.99624039943744        1.67336755932495        0.66200520146864
O            1.15594338147905       -2.25378036881222        1.85491230348987
H           -1.90891993963096        1.61275825009431        0.31515249997133
H           -0.51299932868881        2.21835080648183        0.02212283004918
H            1.51419261029599       -1.96377589345615        2.70567734792742
H            1.92171473303281       -2.59690094079001        1.36951718033984
H           -2.39065131966442       -0.28976137019751        1.88587912175251
H           -2.41438313238069       -1.56115365349405        1.03602493690833
H            3.02657437832061        0.06212751385732       -0.76743358015671
H            2.82454634330375       -1.44857464668792       -0.49230705568317
H            1.97779757400633        1.52848532680500        1.65267827859665
H            2.72046730546475        0.20825269462518        1.95333558111113
H           -1.23328914837453       -0.15343055277289       -2.04864914962736
H            0.14061136324729       -0.67037294552497       -2.58728889110645
O           -4.24663430190224        0.48986795900519        1.84420171951674
O            3.36948044599015       -3.05864901384007        0.27578443289446
O           -2.92739762119383       -0.37345963991003       -1.96687007575836
O           -0.46745295022248       -2.76453002810568       -0.24701509572229
O           -3.47259406861781        1.42469932742440       -0.33305967691440
O           -3.18069151313077       -2.52277886609007       -0.52390187283949
O            2.99841324163267       -1.77244542110637        3.83297851610778
O            4.37787551448954       -0.75238338138116        1.61136686605332
O            2.42984991657567        2.87003314409873        0.52362202919126
O            0.56605775126020        2.50920958204463       -1.42015973713334
O            4.30491169050501        1.14910519044741       -0.26763020082760
O            1.61180690115697       -3.82871862133627       -1.53962496644668
H           -3.11774175686273       -1.70827067308442       -1.10138624341213
H           -3.41405348803223       -3.26231344740223       -1.11082489055366
H           -4.67575885234579       -0.34495511256805        1.59250147007334
H           -3.08867474709810       11.82872148246226        6.79504133783676
H           -4.11016599178725        1.97858522993079       -0.77940170702312
H           -3.95251714615128        0.91293136586118        0.93017285321018
H            0.17377993410101        3.19540937423216       -1.97598821681663
H            0.32327218323858        1.63710994107332       -1.78524600445198
H           -3.56182363657063       -0.21284283375376       -2.68010345252333
H           -3.13788004830651        0.38028130442488       -1.25712941254992
H           -1.42720012010137       -2.75495675481600       -0.40693891007124
H           -0.34598606567014       -3.07607310702801        0.65677564702844
H            1.74572548272168       -3.16011943440602       -2.25301942619987
H            0.79621598442264       -3.51101445238355       -1.09139164195450
H            5.05745814335347        1.60378345922966       -0.66770403760716
H            3.68603750831824        1.84854679511964        0.04378549990476
H            2.53497994917677        3.81788068038561        0.68076865766274
H            1.77404414524024        2.77016736736170       -0.19362577009252
H            4.42743261474805       -0.04288291284825        0.93073403870667
H            4.03826943333240       -1.53489235889049        1.14451509916850
H            2.91912631739006       -1.21826015166433        4.62160285952004
H            3.56392029898315       -1.27639828141755        3.21679082259554
H            3.51744529693216       -3.69603481019204        0.99242348896882
H            2.75904356082543       -3.47769121856847       -0.38485270856979
O            2.84660532753841        0.04827456695965        5.93193960337286
H            3.27083292223278       -0.00982112515463        6.80038987633619
H            2.13571377071341        0.69032676039949        6.00840566944493
O           -1.93324366891295       -2.08560328075314        7.04411705458698
H           -1.61284116712830       -1.98960538282817        6.13957706966501
H           -2.25794930145017       -2.98526543586551        7.13790281150861
O            0.42077539453652        5.33163677693353        4.74457950989683
H           -0.04114734395326        4.53844110373923        4.45025744658072
H           -0.14297946864557        5.75385764253855        5.40843459465609
O            3.56468857923022       -4.24639002992543        2.72718666414478
H            4.03096939886133       -4.83295724127328        3.32199763999556
H            3.33013238005246       -3.44823041372503        3.23985304959186
O           -5.90852406203662        1.90218884395874        3.33487780270688
H           -5.25695056433481        1.42020537874552        2.75251499713240
H           -6.61900378227674        1.27633593832943        3.49900212507037
O            7.60248187538089        5.88355096159813        3.31345554823294
H            7.11774332924258        5.19973674827219        3.80651356852638
H            7.03993036754933        6.10738505009910        2.56482073829213
O           -1.23521018528771       -6.59590126188171        4.22416771086952
H           -0.40728081829485       -6.12530907766732        4.07977820925579
H           -1.90509329639399       -6.15673227027907        3.68980479789062
O           -3.26349011961962        6.61883973616394        0.77200866319406
H           -3.17740681771200        5.85911850043952        1.35767895938103
H           -3.34746733786545        7.39415887966087        1.34693608350373
O            5.63585270722587       -2.64004242822190       -1.20039368875189
H            6.23838432116548       -2.22010895478955       -0.56793986153027
H            4.83501376462527       -2.86376727737226       -0.67784869059439
O           -5.32585925044702       -1.96335527570494        0.97697125214288
H           -4.53566706983914       -2.22951228598742        0.43899936379233
H           -6.05169740996108       -1.87277256282710        0.35545394619389
O            2.77310997991801        5.63810214250538        0.84595600762242
H            2.98282459085429        6.29745984731542        0.18092832199621
H            2.31417443436708        6.10440224620235        1.56684904460891
O            1.46889301431286       -6.39578562851753       -2.32823866517522
H            1.53033902859725       -5.43744410824428       -2.08995245788215
H            0.99218852466111       -6.81496295033234       -1.60680824508626
O           -5.39737016430551        2.86448731682479       -2.39607900676579
H           -5.02881404496065        3.64972727878726       -2.81204701617960
H           -6.21593422547496        3.15137305452782       -1.95755717059076
O            6.46148527865085        2.66832778286966       -1.24222857677342
H            7.35507362340166        2.47124178103387       -0.92118586439412
H            6.42575557425821        3.61933964651802       -1.37145782590953
O           -3.69736462004902       -4.66250775503641       -2.20659837050000
H           -2.94447381891405       -4.77717041281698       -2.79578338114001
H           -4.48085170750090       -4.65351745463464       -2.78370610990038
O           -0.36268854899424        4.77056587616758       -2.83477408918017
H            0.24657153107582        5.25236757872395       -3.40053237539642
H           -0.84836298954810        5.43942839758301       -2.32546724022123
O            1.95792628709703       -1.75221183710976       -3.18269902541240
H            2.85893970829890       -1.85221642003881       -3.52833479759824
H            2.06925664154562       -1.20701169756127       -2.36447677093278
O           -4.87761256473386        0.43225774704008       -3.79634941730509
H           -4.63896217452001        0.70828863176096       -4.69650299572003
H           -5.11858644987340        1.24444150338936       -3.32205745679000
O            3.81828723647443        2.65245549468198       -5.87705185661151
H            3.60973353113605        2.41224930204997       -4.96749001395504
H            3.92126980627594        3.61544809048574       -5.88974412657922
O           -1.57995402849472       -3.48969414794426       -7.08406972640325
H           -0.69244737525376       -3.82759519408426       -7.28290839479140
H           -1.44836551259229       -2.72272163204024       -6.51599753067270
O           -1.51040620614924        1.96345149959955       -7.03634780702263
H           -1.09913846873185        1.66453166801502       -7.85265738327776
H           -0.85524979228343        1.85940994301242       -6.33755246209676
O            3.99329219191931       -0.22824610386470        8.50928000714794
H            4.71547989187022       -0.84932758154038        8.64458209105871
H            3.40127340248012       -0.30940909556613        9.26290558643418
O           -1.16287881961340       -0.49157820692112        9.26484614040881
H           -1.38002837554424       -1.06815428698655        8.51197638165039
H           -1.85331503167646        0.17648465320732        9.29066297992146
O           -1.27772359145845        6.62616219084776        6.63126018520352
H           -2.13805553149023        6.30670193722068        6.92081230167767
H           -1.23543635810998        7.56190416330175        6.84267024643220
O            2.77732806800613       -5.25238780526420        7.79546457300917
H            2.29501809020195       -6.06089631573825        7.98971875999261
H            2.12099370127383       -4.55595819998296        7.68408348590935
O           -4.57343712299212        2.62405808779765        5.64448647859429
H           -5.07470946132831        2.47105537433539        4.81908805352688
H           -3.77751860209933        2.08808967132160        5.55983127527145
O            5.90797416075227        3.90041382505938        4.42047841291291
H            5.03929391873669        4.11504898071999        4.77437977855006
H            5.82097479889164        3.05456528205004        3.96661480843783
O           -1.89620897107501       -7.70994227566092        6.71993770822033
H           -2.43868333718468       -8.47697462568756        6.51884980642308
H           -1.63656888990864       -7.33516829261106        5.85821744391935
O           -3.39147317439903        8.77261475168911        2.61685916258743
H           -2.65118252896079        9.34585087974702        2.83605055689072
H           -4.05721211800484        8.89681967777978        3.29839853240683
O            6.91761987187184       -1.59660012920054        1.09759341158022
H            7.29975486233132       -2.09592498333890        1.82106500294083
H            6.06768911458782       -1.22664084661627        1.43209054611722
O           -5.89637364519804       -3.69380075099901        3.09549445883971
H           -5.69656995159970       -3.09727512446443        2.34807445564637
H           -5.56525150093561       -3.24728802278001        3.87996869631961
O            1.61271261530122        7.03185599349883        2.93802845040766
H            2.15700273706689        7.59016584343035        3.49905726698962
H            1.14766775102544        6.41908594919804        3.54232445997990
O            3.87107358695894       -7.48873479343577       -3.17354284579101
H            4.44432080708050       -7.21203905246005       -2.45164226008463
H            2.98634856560822       -7.12952603675895       -2.95920014979635
O           -7.59706487542563        3.82498257520378       -0.93745132838283
H           -7.35494943018703        4.50048067467862       -0.29589213015935
H           -8.19773575541161        3.21772544677954       -0.49421031535633
O            9.05784443885260        2.25678579660603       -0.23139251783673
H            9.65950665775741        1.58657593484192       -0.56715771529179
H            9.21757822915339        2.34244001978687        0.71359344288181
O           -3.71917272735567       -6.94239515771864       -0.56350780847126
H           -4.51848064683312       -6.89157725684775       -0.03368152611302
H           -3.70237813997081       -6.12733776330271       -1.10097288710228
O           -1.60787558082281        6.88205274836641       -1.44798775374335
H           -1.12469493147063        7.67380842710247       -1.19601221347055
H           -2.24386851667714        6.72290717548150       -0.72741955246781
O            4.64646720269597       -2.21134850082724       -3.71357924386631
H            4.95955749496516       -2.97949256075691       -4.19427230877472
H            5.04551263040937       -2.27622685984346       -2.82116067519060
O           -9.78709843039234       -1.13075864830047       -2.65537025925466
H           -9.28731529383565       -1.89472302762134       -2.96105710969025
H           -9.45288803983615       -0.36786576803326       -3.13751836869173
O            6.83264801271421        8.33109497753299       -1.69952813558424
H            7.76104219036756        8.10771526966931       -1.58051777031873
H            6.62480199662259        9.02462243296036       -1.06663921660590
O           -2.31660703368761       -8.78227400096158       -5.43428663107775
H           -1.97523002535205       -8.94294192459986       -4.54840126758517
H           -1.76583464520442       -8.09686597959664       -5.82682264247771
O           -3.98223887031950        6.96010425055277       -6.29092757879894
H           -3.29445063361084        6.28781084305877       -6.23831284901034
H           -4.02090671023104        7.38944640055811       -5.43079908017958
O            8.94524733263603        0.84544820325108       -5.31024980770561
H            8.47530364279636        0.17157897396243       -4.80761517761051
H            8.32491239297976        1.56837631341731       -5.44884407679931
O           -5.65534552211153       -4.73651480166426       -4.16597160475798
H           -5.62951467964656       -4.03832772109262       -4.82788529304335
H           -5.76796482373366       -5.57027448159312       -4.63182933227488
O            4.22038077325612        5.47641269091742       -5.76553534554344
H            4.73809497766299        5.88130716649107       -5.06205081200482
H            4.30624898256754        6.03339004836170       -6.54352384118214
O            1.14283622193818       -4.27988059320990       -7.41204829678358
H            1.56350940551895       -4.87006588552259       -6.77795033198699
H            1.79936458517713       -3.62434315248461       -7.66791860594463
O           -4.16506942629839        1.38882126450856       -6.36085024837941
H           -3.23496910309984        1.58867980768780       -6.57264590290247
H           -4.69760247877600        1.93678377817884       -6.94251880629991
O            3.58491026161581        0.81458307503216       -8.00264399818007
H            3.60201263245954        1.50739888441809       -7.31993003267160
H            4.34238251821125        0.25267256210766       -7.81363468670729



