%chk=Fe_2_bpw91_2_5.chk
#p bpw91 6-31+G(2df,p) scf=(maxcycles=500,xqc,maxconventional=50) scrf=(cpcm,solvent=water)

Fe_2_bpw91_solvated_radius_4_solvated_radius_6

2 5
Fe        -0.00001        0.00001       -0.00001
O         -1.98019        0.49362       -0.71660
H         -2.25066        0.55941       -1.64974
O          0.52605        2.10079       -0.00555
H          1.28989        2.51019        0.43878
O         -0.70810        0.18275        1.99444
H         -1.14021       -0.51530        2.51943
O          1.98014       -0.49368        0.71664
H          2.76768       -0.69140        0.17913
O         -0.52600       -2.10080        0.00551
H         -1.28987       -2.51024       -0.43871
O          0.70812       -0.18269       -1.99443
H          1.14024        0.51538       -2.51939
H          0.76049       -1.00493       -2.51482
H          0.04476        2.81990       -0.45245
H         -2.76768        0.69137       -0.17912
H         -0.04464       -2.81988        0.45239
H         -0.76049        1.00500        2.51478
H          2.25058       -0.55949        1.64981
O 1.798442084400165 5.26315789535565e-07 4.125004736842105
H 2.698442084400165 5.26315789535565e-07 4.125004736842105
H 1.505430745388724 0.8509672443551747 4.125004736842105
O -2.19475124724529 -2.0105762217947705 3.3750047368421052
H -1.2947512472452902 -2.0105762217947705 3.3750047368421052
H -2.487762586256731 -1.1596095037553853 3.3750047368421052
O 0.31955047288118515 3.6410533766522 2.625004736842105
H 1.2195504728811852 3.6410533766522 2.625004736842105
H 0.026539133869744158 4.492020094691585 2.625004736842105
O 2.488986903323618 -3.246435272359112 1.8750047368421052
H 3.3889869033236177 -3.246435272359112 1.8750047368421052
H 2.1959755643121768 -2.395468554319727 1.8750047368421052
O -4.290496032431185 0.7589297934734313 1.1250047368421052
H -3.390496032431185 0.7589297934734313 1.1250047368421052
H -4.583507371442626 1.6098965115128165 1.1250047368421052
O 3.7836974451850485 2.4068757768567477 0.37500473684210556
H 4.683697445185048 2.4068757768567477 0.37500473684210556
H 3.4906861061736074 3.257842494896133 0.37500473684210556
O -1.1641507248584666 -4.330601722282626 -0.3749952631578945
H -0.2641507248584666 -4.330601722282626 -0.3749952631578945
H -1.4571620638699077 -3.4796350042432413 -0.3749952631578945
O -2.0082156215650926 3.8667076367861997 -1.1249952631578943
H -1.1082156215650927 3.8667076367861997 -1.1249952631578943
H -2.3012269605765336 4.717674354825585 -1.1249952631578943
O 3.8425498649377205 -1.4032905993358762 -1.8749952631578954
H 4.742549864937721 -1.4032905993358762 -1.8749952631578954
H 3.5495385259262795 -0.552323881296491 -1.8749952631578954
O -3.378522001547091 -1.394606415315095 -2.624995263157894
H -2.4785220015470912 -1.394606415315095 -2.624995263157894
H -3.671533340558532 -0.5436396972757098 -2.624995263157894
O 1.2615702473813486 2.6958916202921905 -3.3749952631578948
H 2.1615702473813485 2.6958916202921905 -3.3749952631578948
H 0.9685589083699075 3.5468583383315755 -3.3749952631578948
O 0.5382483849792066 -1.7160033611541792 -4.124995263157895
H 1.4382483849792065 -1.7160033611541792 -4.124995263157895
H 0.24523704596776558 -0.865036643114794 -4.124995263157895
O 2.323174748591379 0.1457353823795877 6.1388936257309945
H 3.223174748591379 0.1457353823795877 6.1388936257309945
H 2.030163409579938 0.9967021004189729 6.1388936257309945
O -2.4625612876994025 -2.2813081278453295 5.416671403508773
H -1.5625612876994026 -2.2813081278453295 5.416671403508773
H -2.7555726267108436 -1.4303414098059444 5.416671403508773
O 0.5798609223359191 4.624318236143016 4.694449181286551
H 1.4798609223359191 4.624318236143016 4.694449181286551
H 0.28684958332447813 5.475284954182401 4.694449181286551
O 3.3172557107137757 -3.9373733079762108 3.9722269590643284
H 4.217255710713776 -3.9373733079762108 3.9722269590643284
H 3.0242443717023346 -3.086406589936826 3.9722269590643284
O -5.3563022045654956 1.126234342789437 3.250004736842107
H -4.456302204565495 1.126234342789437 3.250004736842107
H -5.649313543576937 1.9772010608288222 3.250004736842107
O 5.239514890942861 3.35985098588724 2.527782514619884
H 6.139514890942861 3.35985098588724 2.527782514619884
H 4.9465035519314196 4.210817703926625 2.527782514619884
O -1.4342072550813083 -5.884377696992602 1.8055602923976615
H -0.5342072550813083 -5.884377696992602 1.8055602923976615
H -1.7272185940927494 -5.033410978953217 1.8055602923976615
O -2.767180353667324 5.833469069081072 1.0833380701754394
H -1.8671803536673242 5.833469069081072 1.0833380701754394
H -3.060191692678765 6.684435787120457 1.0833380701754394
O 6.2829715449791905 -2.0805720852035914 0.3611158479532175
H 7.182971544979191 -2.0805720852035914 0.3611158479532175
H 5.9899602059677495 -1.2296053671642062 0.3611158479532175
O -5.812154360085095 -2.3305509744292663 -0.36110637426900466
H -4.912154360085094 -2.3305509744292663 -0.36110637426900466
H -6.105165699096536 -1.4795842563898811 -0.36110637426900466
O 2.903278220682606 5.950664619333483 -1.083328596491227
H 3.803278220682606 5.950664619333483 -1.083328596491227
H 2.610266881671165 6.801631337372868 -1.083328596491227
O 2.055599365220455 -5.812251289264165 -1.805550818713449
H 2.955599365220455 -5.812251289264165 -1.805550818713449
H 1.7625880262090141 -4.96128457122478 -1.805550818713449
O -4.994375216568511 3.148339629857238 -2.527773040935671
H -4.094375216568511 3.148339629857238 -2.527773040935671
H -5.287386555579952 3.9993063478966233 -2.527773040935671
O 5.68468180764265 1.354426503912301 -3.2499952631578948
H 6.58468180764265 1.354426503912301 -3.2499952631578948
H 5.391670468631209 2.2053932219516863 -3.2499952631578948
O -2.7722520967662923 -4.063229657847513 -3.9722174853801158
H -1.8722520967662923 -4.063229657847513 -3.9722174853801158
H -3.0652634357777333 -3.212262939808128 -3.9722174853801158
O -0.3909453788737616 4.60425386618652 -4.6944397076023385
H 0.5090546211262384 4.60425386618652 -4.6944397076023385
H -0.6839567178852026 5.455220584225905 -4.6944397076023385
O 2.934204236798283 -2.169769193747874 -5.41666192982456
H 3.834204236798283 -2.169769193747874 -5.41666192982456
H 2.641192897786842 -1.3188024757084886 -5.41666192982456
O -1.9477252013110147 0.05746554262339844 -6.138884152046782
H -1.0477252013110148 0.05746554262339844 -6.138884152046782
H -2.2407365403224557 0.9084322606627836 -6.138884152046782



