%chk=Fe_2_M05-2X_2_5.chk
#p M052X 6-31+G(2df,p) scf=(maxcycles=500,xqc,maxconventional=50) scrf=(cpcm,solvent=water)

Fe_2_M05-2X_solvated_radius_4_solvated_radius_6

2 5
Fe        -0.00007        0.00002       -0.00001
O          0.10296        1.77123        1.18340
H          0.60182        2.56880        0.97452
O          1.43876       -0.95277        1.25193
H          1.88425       -1.78872        1.07480
O         -1.59044       -0.74750        1.20891
H         -2.52963       -0.72300        0.99461
O         -0.10277       -1.77116       -1.18351
H          0.37667       -1.93681       -2.00272
O         -1.43891        0.95295       -1.25173
H         -1.79283        0.60678       -2.07845
O          1.59050        0.74719       -1.20897
H          2.52969        0.72218       -0.99468
H          1.49841        1.21100       -2.04852
H          1.79344       -0.60600        2.07798
H         -0.37594        1.93687        2.00294
H         -1.88485        1.78860       -1.07409
H         -1.49812       -1.21104        2.04858
H         -0.60197       -2.56865       -0.97506
O 1.798487873873849 -1.5789473684080235e-06 4.124996315789474
H 2.698487873873849 -1.5789473684080235e-06 4.124996315789474
H 1.505476534862408 0.8509651390920168 4.124996315789474
O -2.194705457771606 -2.0105783270579285 3.3749963157894736
H -1.294705457771606 -2.0105783270579285 3.3749963157894736
H -2.487716796783047 -1.1596116090185433 3.3749963157894736
O 0.3195962623548694 3.641051271389042 2.624996315789473
H 1.2195962623548695 3.641051271389042 2.624996315789473
H 0.02658492334342838 4.492017989428427 2.624996315789473
O 2.489032692797302 -3.24643737762227 1.8749963157894738
H 3.389032692797302 -3.24643737762227 1.8749963157894738
H 2.196021353785861 -2.3954706595828847 1.8749963157894738
O -4.2904502429575 0.7589276882102733 1.1249963157894738
H -3.3904502429575003 0.7589276882102733 1.1249963157894738
H -4.583461581968941 1.6098944062496585 1.1249963157894738
O 3.7837432346587327 2.4068736715935897 0.37499631578947396
H 4.683743234658733 2.4068736715935897 0.37499631578947396
H 3.4907318956472917 3.2578403896329746 0.37499631578947396
O -1.1641049353847825 -4.330603827545784 -0.3750036842105261
H -0.2641049353847825 -4.330603827545784 -0.3750036842105261
H -1.4571162743962236 -3.479637109506399 -0.3750036842105261
O -2.0081698320914083 3.8667055315230416 -1.1250036842105258
H -1.1081698320914084 3.8667055315230416 -1.1250036842105258
H -2.3011811711028494 4.717672249562427 -1.1250036842105258
O 3.842595654411405 -1.4032927045990342 -1.8750036842105269
H 4.742595654411405 -1.4032927045990342 -1.8750036842105269
H 3.5495843153999638 -0.552325986559649 -1.8750036842105269
O -3.378476212073407 -1.394608520578253 -2.6250036842105255
H -2.478476212073407 -1.394608520578253 -2.6250036842105255
H -3.671487551084848 -0.5436418025388678 -2.6250036842105255
O 1.2616160368550327 2.6958895150290325 -3.3750036842105264
H 2.161616036855033 2.6958895150290325 -3.3750036842105264
H 0.9686046978435916 3.546856233068418 -3.3750036842105264
O 0.5382941744528909 -1.7160054664173372 -4.125003684210526
H 1.4382941744528908 -1.7160054664173372 -4.125003684210526
H 0.24528283544144985 -0.865038748377952 -4.125003684210526
O 2.3232205380650632 0.1457332771164297 6.138885204678362
H 3.223220538065063 0.1457332771164297 6.138885204678362
H 2.030209199053622 0.9966999951558149 6.138885204678362
O -2.4625154982257182 -2.2813102331084876 5.416662982456141
H -1.5625154982257183 -2.2813102331084876 5.416662982456141
H -2.7555268372371593 -1.4303435150691024 5.416662982456141
O 0.5799067118096034 4.624316130879858 4.694440760233919
H 1.4799067118096034 4.624316130879858 4.694440760233919
H 0.2868953727981624 5.475282848919243 4.694440760233919
O 3.31730150018746 -3.937375413239369 3.9722185380116963
H 4.21730150018746 -3.937375413239369 3.9722185380116963
H 3.024290161176019 -3.0864086951999834 3.9722185380116963
O -5.356256415091811 1.126232237526279 3.249996315789475
H -4.4562564150918105 1.126232237526279 3.249996315789475
H -5.649267754103252 1.9771989555656642 3.249996315789475
O 5.239560680416545 3.359848880624082 2.5277740935672517
H 6.139560680416546 3.359848880624082 2.5277740935672517
H 4.946549341405104 4.210815598663467 2.5277740935672517
O -1.4341614656076243 -5.88437980225576 1.8055518713450294
H -0.5341614656076242 -5.88437980225576 1.8055518713450294
H -1.7271728046190653 -5.033413084216375 1.8055518713450294
O -2.76713456419364 5.833466963817914 1.0833296491228073
H -1.8671345641936399 5.833466963817914 1.0833296491228073
H -3.060145903205081 6.684433681857299 1.0833296491228073
O 6.283017334452875 -2.0805741904667494 0.3611074269005854
H 7.183017334452876 -2.0805741904667494 0.3611074269005854
H 5.990005995441434 -1.2296074724273642 0.3611074269005854
O -5.81210857061141 -2.3305530796924243 -0.36111479532163676
H -4.91210857061141 -2.3305530796924243 -0.36111479532163676
H -6.105119909622851 -1.4795863616530391 -0.36111479532163676
O 2.9033240101562905 5.950662514070325 -1.083337017543859
H 3.8033240101562904 5.950662514070325 -1.083337017543859
H 2.6103126711448494 6.80162923210971 -1.083337017543859
O 2.0556451546941394 -5.812253394527323 -1.8055592397660811
H 2.9556451546941394 -5.812253394527323 -1.8055592397660811
H 1.7626338156826984 -4.961286676487938 -1.8055592397660811
O -4.994329427094827 3.14833752459408 -2.5277814619883032
H -4.094329427094826 3.14833752459408 -2.5277814619883032
H -5.287340766106268 3.999304242633465 -2.5277814619883032
O 5.684727597116335 1.3544243986491429 -3.250003684210527
H 6.584727597116335 1.3544243986491429 -3.250003684210527
H 5.391716258104894 2.205391116688528 -3.250003684210527
O -2.772206307292608 -4.063231763110672 -3.972225906432748
H -1.872206307292608 -4.063231763110672 -3.972225906432748
H -3.065217646304049 -3.2122650450712866 -3.972225906432748
O -0.3908995894000773 4.604251760923361 -4.694448128654971
H 0.5091004105999227 4.604251760923361 -4.694448128654971
H -0.6839109284115183 5.455218478962746 -4.694448128654971
O 2.9342500262719673 -2.169771299011032 -5.416670350877192
H 3.834250026271967 -2.169771299011032 -5.416670350877192
H 2.6412386872605262 -1.3188045809716467 -5.416670350877192
O -1.9476794118373306 0.05746343736024044 -6.138892573099414
H -1.0476794118373305 0.05746343736024044 -6.138892573099414
H -2.2406907508487715 0.9084301553996256 -6.138892573099414



