%chk=Fe_2_PBE0_2_5.chk
#p PBE1PBE 6-31+G(2df,p) scf=(maxcycles=500,xqc,maxconventional=50) scrf=(cpcm,solvent=water)

Fe_2_PBE0_solvated_radius_4_solvated_radius_6

2 5
Fe         0.00001        0.00004       -0.00001
O         -0.03676       -2.14110        0.00006
H          0.51428       -2.72389       -0.53446
O         -1.84383        0.03148        1.07746
H         -1.94055        0.03347        2.03649
O          1.10400       -0.01883        1.79794
H          1.44126        0.75243        2.26842
O          0.03665        2.14114       -0.00007
H          0.60673        2.70473       -0.53519
O          1.84388       -0.03149       -1.07740
H          1.94065       -0.03357       -2.03643
O         -1.10396        0.01870       -1.79797
H         -1.44106       -0.75268       -2.26836
H         -1.41551        0.80100       -2.26795
H         -2.73098        0.04581        0.70086
H         -0.60715       -2.70462        0.53492
H          2.73100       -0.04567       -0.70076
H          1.41540       -0.80124        2.26783
H         -0.51418        2.72386        0.53473
O 1.7984305054527965 -2.26315789473297e-05 4.1250057894736845
H 2.6984305054527966 -2.26315789473297e-05 4.1250057894736845
H 1.5054191664413554 0.8509440864604378 4.1250057894736845
O -2.1947628261926586 -2.0105993796895074 3.3750057894736845
H -1.2947628261926587 -2.0105993796895074 3.3750057894736845
H -2.4877741652040997 -1.1596326616501222 3.3750057894736845
O 0.31953889393381674 3.641030218757463 2.625005789473684
H 1.2195388939338168 3.641030218757463 2.625005789473684
H 0.02652755492237574 4.491996936796848 2.625005789473684
O 2.4889753243762494 -3.246458430253849 1.8750057894736842
H 3.3889753243762493 -3.246458430253849 1.8750057894736842
H 2.1959639853648083 -2.395491712214464 1.8750057894736842
O -4.290507611378553 0.7589066355786944 1.1250057894736842
H -3.390507611378553 0.7589066355786944 1.1250057894736842
H -4.583518950389994 1.6098733536180796 1.1250057894736842
O 3.78368586623768 2.4068526189620107 0.3750057894736845
H 4.68368586623768 2.4068526189620107 0.3750057894736845
H 3.490674527226239 3.257819337001396 0.3750057894736845
O -1.164162303805835 -4.330624880177362 -0.37499421052631554
H -0.26416230380583505 -4.330624880177362 -0.37499421052631554
H -1.4571736428172761 -3.4796581621379774 -0.37499421052631554
O -2.008227200512461 3.8666844788914627 -1.1249942105263153
H -1.1082272005124612 3.8666844788914627 -1.1249942105263153
H -2.301238539523902 4.717651196930848 -1.1249942105263153
O 3.842538285990352 -1.4033137572306131 -1.8749942105263164
H 4.742538285990352 -1.4033137572306131 -1.8749942105263164
H 3.549526946978911 -0.552347039191228 -1.8749942105263164
O -3.3785335804944596 -1.394629573209832 -2.6249942105263147
H -2.4785335804944597 -1.394629573209832 -2.6249942105263147
H -3.6715449195059007 -0.5436628551704468 -2.6249942105263147
O 1.2615586684339801 2.6958684623974536 -3.3749942105263155
H 2.16155866843398 2.6958684623974536 -3.3749942105263155
H 0.9685473294225391 3.5468351804368385 -3.3749942105263155
O 0.5382368060318381 -1.7160265190489161 -4.1249942105263155
H 1.438236806031838 -1.7160265190489161 -4.1249942105263155
H 0.2452254670203971 -0.865059801009531 -4.1249942105263155
O 2.3231631696440105 0.14571222448485083 6.138894678362572
H 3.2231631696440104 0.14571222448485083 6.138894678362572
H 2.0301518306325694 0.996678942524236 6.138894678362572
O -2.462572866646771 -2.2813312857400665 5.4166724561403505
H -1.562572866646771 -2.2813312857400665 5.4166724561403505
H -2.755584205658212 -1.4303645677006813 5.4166724561403505
O 0.5798493433885507 4.624295078248279 4.694450233918128
H 1.4798493433885507 4.624295078248279 4.694450233918128
H 0.28683800437710966 5.475261796287664 4.694450233918128
O 3.317244131766407 -3.9373964658709477 3.972228011695906
H 4.2172441317664076 -3.9373964658709477 3.972228011695906
H 3.024232792754966 -3.0864297478315628 3.972228011695906
O -5.356313783512864 1.1262111848947 3.2500057894736845
H -4.456313783512863 1.1262111848947 3.2500057894736845
H -5.649325122524305 1.9771779029340852 3.2500057894736845
O 5.239503311995493 3.359827827992503 2.5277835672514612
H 6.139503311995493 3.359827827992503 2.5277835672514612
H 4.9464919729840515 4.210794546031888 2.5277835672514612
O -1.4342188340286768 -5.884400854887339 1.8055613450292394
H -0.5342188340286768 -5.884400854887339 1.8055613450292394
H -1.7272301730401178 -5.033434136847954 1.8055613450292394
O -2.7671919326146925 5.8334459111863355 1.0833391228070173
H -1.8671919326146926 5.8334459111863355 1.0833391228070173
H -3.0602032716261336 6.68441262922572 1.0833391228070173
O 6.2829599660318225 -2.0805952430983283 0.36111690058479523
H 7.182959966031823 -2.0805952430983283 0.36111690058479523
H 5.9899486270203814 -1.2296285250589432 0.36111690058479523
O -5.812165939032463 -2.3305741323240032 -0.3611053216374269
H -4.912165939032462 -2.3305741323240032 -0.3611053216374269
H -6.105177278043904 -1.479607414284618 -0.3611053216374269
O 2.9032666417352377 5.950641461438746 -1.083327543859649
H 3.8032666417352377 5.950641461438746 -1.083327543859649
H 2.6102553027237967 6.801608179478131 -1.083327543859649
O 2.0555877862730867 -5.812274447158902 -1.8055497660818711
H 2.9555877862730866 -5.812274447158902 -1.8055497660818711
H 1.7625764472616456 -4.961307729119517 -1.8055497660818711
O -4.994386795515879 3.148316471962501 -2.5277719883040937
H -4.094386795515879 3.148316471962501 -2.5277719883040937
H -5.28739813452732 3.9992831900018864 -2.5277719883040937
O 5.684670228695282 1.354403346017564 -3.2499942105263173
H 6.584670228695282 1.354403346017564 -3.2499942105263173
H 5.391658889683841 2.2053700640569494 -3.2499942105263173
O -2.7722636757136607 -4.06325281574225 -3.9722164327485383
H -1.8722636757136608 -4.06325281574225 -3.9722164327485383
H -3.0652750147251018 -3.212286097702865 -3.9722164327485383
O -0.39095695782113005 4.604230708291783 -4.694438654970761
H 0.50904304217887 4.604230708291783 -4.694438654970761
H -0.6839682968325711 5.455197426331168 -4.694438654970761
O 2.9341926578509145 -2.1697923516426108 -5.4166608771929825
H 3.8341926578509145 -2.1697923516426108 -5.4166608771929825
H 2.6411813188394735 -1.3188256336032256 -5.4166608771929825
O -1.9477367802583831 0.057442384728661575 -6.138883099415205
H -1.0477367802583832 0.057442384728661575 -6.138883099415205
H -2.240748119269824 0.9084091027680468 -6.138883099415205



