%chk=Fe_2_wB97X-D_2_5.chk
#p wB97XD 6-31+G(2df,p) scf=(maxcycles=500,xqc,maxconventional=50) scrf=(cpcm,solvent=water)

Fe_2_wB97X-D_solvated_radius_4_solvated_radius_6

2 5
Fe         0.00005        0.00000        0.00001
O         -0.17083       -1.18495        1.75140
H         -0.98746       -1.40446        2.21311
O          2.13346       -0.33055       -0.01514
H          2.61409       -0.94248       -0.58249
O         -0.28415       -1.77527       -1.16739
H         -0.29752       -1.82528       -2.12914
O          0.17069        1.18499       -1.75138
H         -0.54715        1.64534       -2.19974
O         -2.13344        0.33048        0.01515
H         -2.61407        0.94275        0.58212
O          0.28415        1.77531        1.16736
H          0.29713        1.82542        2.12908
H          0.42285        2.66734        0.83168
H          2.78423        0.10546        0.54498
H          0.54686       -1.64533        2.19997
H         -2.78421       -0.10597       -0.54463
H         -0.42223       -2.66743       -0.83173
H          0.98718        1.40461       -2.21328
O 1.7984173475580596 -1.0526315789893242e-06 4.124996842105263
H 2.6984173475580597 -1.0526315789893242e-06 4.124996842105263
H 1.5054060085466185 0.8509656654078062 4.124996842105263
O -2.1947759840873955 -2.010577800742139 3.374996842105263
H -1.2947759840873956 -2.010577800742139 3.374996842105263
H -2.4877873230988365 -1.1596110827027537 3.374996842105263
O 0.31952573603907997 3.6410517977048316 2.6249968421052627
H 1.2195257360390799 3.6410517977048316 2.6249968421052627
H 0.02651439702763897 4.492018515744217 2.6249968421052627
O 2.4889621664815125 -3.2464368513064805 1.8749968421052632
H 3.3889621664815124 -3.2464368513064805 1.8749968421052632
H 2.1959508274700714 -2.3954701332670956 1.8749968421052632
O -4.290520769273289 0.7589282145260627 1.1249968421052632
H -3.3905207692732895 0.7589282145260627 1.1249968421052632
H -4.5835321082847305 1.609894932565448 1.1249968421052632
O 3.783672708342943 2.4068741979093793 0.37499684210526346
H 4.683672708342943 2.4068741979093793 0.37499684210526346
H 3.490661369331502 3.2578409159487647 0.37499684210526346
O -1.164175461700572 -4.330603301229995 -0.3750031578947366
H -0.26417546170057193 -4.330603301229995 -0.3750031578947366
H -1.457186800712013 -3.4796365831906098 -0.3750031578947366
O -2.008240358407198 3.8667060578388313 -1.1250031578947364
H -1.108240358407198 3.8667060578388313 -1.1250031578947364
H -2.301251697418639 4.717672775878216 -1.1250031578947364
O 3.842525128095615 -1.4032921782832448 -1.8750031578947375
H 4.7425251280956155 -1.4032921782832448 -1.8750031578947375
H 3.549513789084174 -0.5523254602438596 -1.8750031578947375
O -3.3785467383891965 -1.3946079942624636 -2.625003157894736
H -2.4785467383891966 -1.3946079942624636 -2.625003157894736
H -3.6715580774006376 -0.5436412762230785 -2.625003157894736
O 1.2615455105392432 2.695890041344822 -3.375003157894737
H 2.161545510539243 2.695890041344822 -3.375003157894737
H 0.9685341715278022 3.546856759384207 -3.375003157894737
O 0.5382236481371013 -1.7160049401015478 -4.125003157894737
H 1.4382236481371014 -1.7160049401015478 -4.125003157894737
H 0.24521230912566033 -0.8650382220621626 -4.125003157894737
O 2.3231500117492736 0.14573380343221914 6.138885730994151
H 3.2231500117492735 0.14573380343221914 6.138885730994151
H 2.0301386727378326 0.9967005214716043 6.138885730994151
O -2.462586024541508 -2.281309706792698 5.416663508771929
H -1.562586024541508 -2.281309706792698 5.416663508771929
H -2.755597363552949 -1.4303429887533128 5.416663508771929
O 0.5798361854938139 4.6243166571956476 4.694441286549707
H 1.4798361854938138 4.6243166571956476 4.694441286549707
H 0.2868248464823729 5.4752833752350325 4.694441286549707
O 3.3172309738716703 -3.937374886923579 3.972219064327485
H 4.21723097387167 -3.937374886923579 3.972219064327485
H 3.0242196348602293 -3.0864081688841942 3.972219064327485
O -5.356326941407601 1.1262327638420684 3.2499968421052636
H -4.4563269414076006 1.1262327638420684 3.2499968421052636
H -5.649338280419042 1.9771994818814536 3.2499968421052636
O 5.239490154100755 3.3598494069398717 2.5277746198830404
H 6.139490154100756 3.3598494069398717 2.5277746198830404
H 4.946478815089314 4.210816124979257 2.5277746198830404
O -1.4342319919234137 -5.8843792759399705 1.805552397660818
H -0.5342319919234136 -5.8843792759399705 1.805552397660818
H -1.7272433309348547 -5.0334125579005855 1.805552397660818
O -2.7672050905094294 5.833467490133704 1.083330175438596
H -1.8672050905094295 5.833467490133704 1.083330175438596
H -3.0602164295208705 6.684434208173089 1.083330175438596
O 6.282946808137085 -2.08057366415096 0.3611079532163741
H 7.1829468081370855 -2.08057366415096 0.3611079532163741
H 5.989935469125644 -1.2296069461115746 0.3611079532163741
O -5.8121790969272 -2.3305525533766347 -0.36111426900584803
H -4.9121790969272 -2.3305525533766347 -0.36111426900584803
H -6.105190435938641 -1.4795858353372495 -0.36111426900584803
O 2.903253483840501 5.9506630403861145 -1.0833364912280703
H 3.8032534838405008 5.9506630403861145 -1.0833364912280703
H 2.61024214482906 6.801629758425499 -1.0833364912280703
O 2.05557462837835 -5.812252868211534 -1.8055587134502924
H 2.9555746283783497 -5.812252868211534 -1.8055587134502924
H 1.7625632893669088 -4.961286150172149 -1.8055587134502924
O -4.994399953410617 3.1483380509098695 -2.5277809356725145
H -4.094399953410616 3.1483380509098695 -2.5277809356725145
H -5.287411292422058 3.999304768949255 -2.5277809356725145
O 5.684657070800545 1.3544249249649323 -3.250003157894738
H 6.584657070800545 1.3544249249649323 -3.250003157894738
H 5.391645731789104 2.2053916430043174 -3.250003157894738
O -2.7722768336083976 -4.0632312367948815 -3.972225380116959
H -1.8722768336083977 -4.0632312367948815 -3.972225380116959
H -3.0652881726198387 -3.2122645187554966 -3.972225380116959
O -0.3909701157158668 4.604252287239151 -4.694447602339182
H 0.5090298842841332 4.604252287239151 -4.694447602339182
H -0.6839814547273078 5.455219005278536 -4.694447602339182
O 2.9341794999561777 -2.169770772695242 -5.416669824561404
H 3.8341794999561776 -2.169770772695242 -5.416669824561404
H 2.6411681609447366 -1.318804054655857 -5.416669824561404
O -1.94774993815312 0.05746396367602989 -6.138892046783626
H -1.0477499381531201 0.05746396367602989 -6.138892046783626
H -2.240761277164561 0.9084306817154151 -6.138892046783626



