%chk=Fe_2_PBE_2_5.chk
#p PBEPBE 6-31+G(2df,p) scf=(maxcycles=500,xqc,maxconventional=50) scrf=(cpcm,solvent=water)

Fe_2_PBE_solvated_radius_4_solvated_radius_6

2 5
Fe         0.00008        0.00022        0.00002
O         -1.92796        0.53759       -0.77368
H         -2.73309        0.73342       -0.26010
O         -0.56639       -2.07205       -0.02786
H         -0.11039       -2.80487        0.42569
O          0.76744       -0.18193       -1.95833
H          1.22837        0.51379       -2.46382
O          1.92786       -0.53819        0.77357
H          2.16275       -0.62054        1.71617
O          0.56630        2.07233        0.02793
H          1.32020        2.46327        0.50694
O         -0.76749        0.18154        1.95834
H         -1.22847       -0.51475        2.46300
H         -0.82764        1.00326        2.48100
H         -1.32140       -2.46258       -0.50545
H         -2.16300        0.61925       -1.71630
H          0.11127        2.80483       -0.42712
H          0.82740       -1.00421       -2.48014
H          2.73382       -0.73070        0.26002
O 1.798418926505428 -1.684210526319227e-05 4.124993684210526
H 2.698418926505428 -1.684210526319227e-05 4.124993684210526
H 1.505407587493987 0.850949875934122 4.124993684210526
O -2.194774405140027 -2.0105935902158234 3.3749936842105264
H -1.2947744051400272 -2.0105935902158234 3.3749936842105264
H -2.487785744151468 -1.1596268721764382 3.3749936842105264
O 0.3195273149864483 3.641036008231147 2.624993684210526
H 1.2195273149864483 3.641036008231147 2.624993684210526
H 0.026515975975007322 4.492002726270532 2.624993684210526
O 2.488963745428881 -3.246452640780165 1.8749936842105264
H 3.388963745428881 -3.246452640780165 1.8749936842105264
H 2.19595240641744 -2.3954859227407796 1.8749936842105264
O -4.290519190325922 0.7589124250523785 1.1249936842105264
H -3.390519190325922 0.7589124250523785 1.1249936842105264
H -4.583530529337363 1.6098791430917636 1.1249936842105264
O 3.7836742872903115 2.4068584084356948 0.3749936842105266
H 4.683674287290311 2.4068584084356948 0.3749936842105266
H 3.4906629482788705 3.2578251264750797 0.3749936842105266
O -1.1641738827532035 -4.330619090703679 -0.37500631578947347
H -0.2641738827532035 -4.330619090703679 -0.37500631578947347
H -1.4571852217646446 -3.479652372664294 -0.37500631578947347
O -2.0082387794598295 3.8666902683651467 -1.1250063157894732
H -1.1082387794598296 3.8666902683651467 -1.1250063157894732
H -2.3012501184712706 4.717656986404532 -1.1250063157894732
O 3.8425267070429836 -1.403307967756929 -1.8750063157894743
H 4.742526707042984 -1.403307967756929 -1.8750063157894743
H 3.5495153680315426 -0.5523412497175437 -1.8750063157894743
O -3.378545159441828 -1.3946237837361477 -2.6250063157894727
H -2.478545159441828 -1.3946237837361477 -2.6250063157894727
H -3.671556498453269 -0.5436570656967625 -2.6250063157894727
O 1.2615470894866117 2.6958742518711376 -3.3750063157894736
H 2.1615470894866116 2.6958742518711376 -3.3750063157894736
H 0.9685357504751706 3.546840969910523 -3.3750063157894736
O 0.5382252270844697 -1.7160207295752319 -4.125006315789474
H 1.4382252270844698 -1.7160207295752319 -4.125006315789474
H 0.24521388807302874 -0.8650540115358467 -4.125006315789474
O 2.323151590696642 0.14571801395853481 6.138882573099415
H 3.223151590696642 0.14571801395853481 6.138882573099415
H 2.030140251685201 0.99668473199792 6.138882573099415
O -2.4625844455941395 -2.2813254962663825 5.416660350877193
H -1.5625844455941396 -2.2813254962663825 5.416660350877193
H -2.7555957846055805 -1.4303587782269973 5.416660350877193
O 0.5798377644411822 4.6243008677219635 4.694438128654971
H 1.4798377644411822 4.6243008677219635 4.694438128654971
H 0.2868264254297412 5.475267585761348 4.694438128654971
O 3.3172325528190387 -3.9373906763972637 3.9722159064327487
H 4.217232552819039 -3.9373906763972637 3.9722159064327487
H 3.0242212138075977 -3.0864239583578783 3.9722159064327487
O -5.3563253624602325 1.126216974368384 3.2499936842105273
H -4.456325362460232 1.126216974368384 3.2499936842105273
H -5.6493367014716735 1.9771836924077693 3.2499936842105273
O 5.239491733048124 3.359833617466187 2.527771461988304
H 6.139491733048124 3.359833617466187 2.527771461988304
H 4.946480394036683 4.2108003355055725 2.527771461988304
O -1.4342304129760455 -5.8843950654136545 1.805549239766082
H -0.5342304129760455 -5.8843950654136545 1.805549239766082
H -1.7272417519874865 -5.03342834737427 1.805549239766082
O -2.767203511562061 5.83345170066002 1.0833270175438598
H -1.867203511562061 5.83345170066002 1.0833270175438598
H -3.060214850573502 6.684418418699405 1.0833270175438598
O 6.282948387084454 -2.0805894536246443 0.3611047953216379
H 7.182948387084454 -2.0805894536246443 0.3611047953216379
H 5.9899370480730125 -1.2296227355852591 0.3611047953216379
O -5.812177517979832 -2.330568342850319 -0.36111742690058424
H -4.912177517979831 -2.330568342850319 -0.36111742690058424
H -6.105188856991273 -1.479601624810934 -0.36111742690058424
O 2.9032550627878693 5.95064725091243 -1.0833396491228064
H 3.803255062787869 5.95064725091243 -1.0833396491228064
H 2.610243723776428 6.801613968951815 -1.0833396491228064
O 2.055576207325718 -5.812268657685218 -1.8055618713450285
H 2.955576207325718 -5.812268657685218 -1.8055618713450285
H 1.7625648683142772 -4.961301939645833 -1.8055618713450285
O -4.994398374463248 3.148322261436185 -2.527784093567251
H -4.094398374463248 3.148322261436185 -2.527784093567251
H -5.287409713474689 3.99928897947557 -2.527784093567251
O 5.684658649747913 1.354409135491248 -3.2500063157894745
H 6.584658649747913 1.354409135491248 -3.2500063157894745
H 5.391647310736472 2.205375853530633 -3.2500063157894745
O -2.772275254661029 -4.063247026268566 -3.9722285380116955
H -1.8722752546610293 -4.063247026268566 -3.9722285380116955
H -3.0652865936724703 -3.2122803082291806 -3.9722285380116955
O -0.3909685367684985 4.604236497765467 -4.694450760233918
H 0.5090314632315015 4.604236497765467 -4.694450760233918
H -0.6839798757799396 5.455203215804852 -4.694450760233918
O 2.934181078903546 -2.1697865621689267 -5.41667298245614
H 3.834181078903546 -2.1697865621689267 -5.41667298245614
H 2.641169739892105 -1.3188198441295416 -5.41667298245614
O -1.9477483592057518 0.05744817420234556 -6.138895204678362
H -1.0477483592057517 0.05744817420234556 -6.138895204678362
H -2.2407596982171927 0.9084148922417308 -6.138895204678362



