%chk=salicylate_ox_low_spin.chk
#p B3LYP empiricaldispersion=gd3 scrf=(cpcm,solvent=water) scf=(maxcycles=500,xqc,maxconventional=50)

salicylate ox low_spin spin

-3 2
C         -0.05215        5.37971       -0.84262
C          0.82049        4.76253       -1.77200
C          1.07603        3.39022       -1.71628
C          0.46537        2.53085       -0.70966
C         -0.43431        3.18975        0.23868
C         -0.65847        4.57224        0.14211
C         -1.16655        2.38741        1.36394
O         -0.97241        1.05521        1.41129
O         -1.92866        3.00927        2.18215
O          0.75154        1.23506       -0.71731
H         -0.24910        6.45744       -0.89116
H          1.30587        5.37171       -2.54928
H          1.75481        2.91929       -2.43845
H         -1.34588        5.00704        0.88556
Fe         0.09091       -0.08829        0.41420
C          4.85898       -2.53669       -0.91648
C          3.90932       -2.96337       -1.87903
C          2.54991       -2.50766       -1.77330
C          2.13387       -1.64360       -0.73174
C          3.12245       -1.20282        0.27532
C          4.48312       -1.68488        0.12834
C          2.74144       -0.31211        1.37514
O          1.36215        0.09266        1.41262
O          3.50430        0.12814        2.31293
O          0.83018       -1.25351       -0.66810
H          5.90236       -2.88019       -0.99160
H          4.20417       -3.63148       -2.69818
H          1.80243       -2.82627       -2.51045
H          5.21984       -1.35706        0.87479
C         -4.83613       -2.56362       -0.93194
C         -4.62575       -1.55029       -1.89681
C         -3.49156       -0.73690       -1.85326
C         -2.46941       -0.88671       -0.81862
C         -2.71175       -1.94238        0.16804
C         -3.86696       -2.73248        0.08113
C         -1.70442       -2.20848        1.33219
O         -0.59135       -1.45593        1.37491
O         -1.96065       -3.11965        2.19301
O         -1.41925       -0.08520       -0.82786
H         -5.72945       -3.19821       -0.97253
H         -5.36813       -1.39933       -2.69543
H         -3.34002        0.04662       -2.60639
H         -3.98857       -3.50674        0.85573
O 2.372447974498746 0.029332558139535066 7.55664736486977
H 3.272447974498746 0.029332558139535066 7.55664736486977
H 2.079436635487305 0.8802992761789202 7.55664736486977
O -2.9659467686884233 -2.6872619415050365 6.864388038905361
H -2.0659467686884234 -2.6872619415050365 6.864388038905361
H -3.2589581076998644 -1.8362952234656513 6.864388038905361
O 0.44321059031693477 5.085156729860574 6.1721287129409514
H 1.343210590316935 5.085156729860574 6.1721287129409514
H 0.15019925130549378 5.936123447899959 6.1721287129409514
O 3.5672714340280844 -4.624190157002511 5.479869386976543
H 4.467271434028085 -4.624190157002511 5.479869386976543
H 3.2742600950166434 -3.773223438963126 5.479869386976543
O -6.386105569606818 1.1588567239354208 4.787610061012136
H -5.486105569606818 1.1588567239354208 4.787610061012136
H -6.679116908618259 2.009823441974806 4.787610061012136
O 5.891364139112159 3.777252615224761 4.0953507350477265
H 6.79136413911216 3.777252615224761 4.0953507350477265
H 5.598352800100718 4.628219333264147 4.0953507350477265
O -1.91720743765981 -7.1007330887014675 3.4030914090833164
H -1.0172074376598101 -7.1007330887014675 3.4030914090833164
H -2.210218776671251 -6.2497663706620825 3.4030914090833164
O -3.5498958178991242 6.863483145321561 2.7108320831189094
H -2.6498958178991243 6.863483145321561 2.7108320831189094
H -3.8429071569105653 7.7144498633609455 2.7108320831189094
O 7.463273382621323 -2.6964245760891052 2.0185727571545
H 8.363273382621323 -2.6964245760891052 2.0185727571545
H 7.170262043609882 -1.84545785804972 2.0185727571545
O -7.510653759856126 -3.0707507957014353 1.3263134311900917
H -6.610653759856126 -3.0707507957014353 1.3263134311900917
H -7.803665098867567 -2.21978407766205 1.3263134311900917
O 3.4928230606948465 7.494355564497757 0.6340541052256836
H 4.392823060694846 7.494355564497757 0.6340541052256836
H 3.1998117216834054 8.345322282537142 0.6340541052256836
O 2.4835280295862057 -7.890132071808905 -0.05820522073872586
H 3.3835280295862056 -7.890132071808905 -0.05820522073872586
H 2.1905166905747646 -7.03916535376952 -0.05820522073872586
O -7.181662010136715 4.190964210644837 -0.7504645467031352
H -6.281662010136714 4.190964210644837 -0.7504645467031352
H -7.474673349148156 5.041930928684222 -0.7504645467031352
O 8.04922237200409 1.7990408779784874 -1.442723872667543
H 8.94922237200409 1.7990408779784874 -1.442723872667543
H 7.756211032992649 2.650007596017873 -1.442723872667543
O -4.673329898551732 -6.6172907615006515 -2.134983198631951
H -3.7733298985517325 -6.6172907615006515 -2.134983198631951
H -4.9663412375631735 -5.766324043461267 -2.134983198631951
O -1.0216329584394237 7.909364863401037 -2.8272425245963606
H -0.12163295843942368 7.909364863401037 -2.8272425245963606
H -1.3146442974508648 8.760331581440422 -2.8272425245963606
O 5.887987127015605 -4.933488470490725 -3.519501850560769
H 6.787987127015605 -4.933488470490725 -3.519501850560769
H 5.594975788004164 -4.08252175245134 -3.519501850560769
O -7.3773906320790115 -0.2757251353654237 -4.211761176525176
H -6.477390632079011 -0.2757251353654237 -4.211761176525176
H -7.6704019710904525 0.5752415826739614 -4.211761176525176
O 4.949189771096549 4.954932434046302 -4.904020502489587
H 5.849189771096549 4.954932434046302 -4.904020502489587
H 4.656178432085108 5.805899152085687 -4.904020502489587
O -0.30003682771006207 -6.448482826585631 -5.596279828453994
H 0.5999631722899379 -6.448482826585631 -5.596279828453994
H -0.5930481667215031 -5.597516108546246 -5.596279828453994
O -3.757493078564182 4.531468961880681 -6.288539154418404
H -2.857493078564182 4.531468961880681 -6.288539154418404
H -4.050504417575623 5.382435679920066 -6.288539154418404
O 5.029434655342097 -0.647437691434795 -6.980798480382813
H 5.929434655342098 -0.647437691434795 -6.980798480382813
H 4.736423316330656 0.20352902660459016 -6.980798480382813
O -3.3017132581836837 -2.267567422168915 -7.67305780634722
H -2.4017132581836838 -2.267567422168915 -7.67305780634722
H -3.5947245971951247 -1.4166007041295299 -7.67305780634722
O 0.5203198672690235 2.3444177141394857 -8.36531713231163
H 1.4203198672690234 2.3444177141394857 -8.36531713231163
H 0.22730852825758247 3.195384432178871 -8.36531713231163


