%chk=Cr_2_HSE06.chk
#p HSEH1PBE 6-31+G(2df,p) opt=(cartesian,calcall,maxcycles=500) freq scf=(maxcycles=500,xqc,maxconventional=50)

Title

2 5
Cr                -0.79303724    0.81880520   -0.09490545
O                 -1.20497055    2.57394081   -0.35687399
H                 -2.12106289    2.64974306   -0.63312164
O                  0.99012218    1.19063487   -0.05794062
H                  1.42696163    0.59979814    0.55970687
O                 -0.81751878    1.03069089    1.71365016
H                 -1.02107924    0.19060168    2.13132590
O                 -0.38506840   -0.93350649    0.17117694
H                 -1.15681661   -1.47369231   -0.01432729
O                 -2.57340546    0.45177807   -0.12185749
H                 -2.77755719   -0.08744013   -0.88928543
O                 -0.76965907    0.60461185   -1.90110947
H                  0.09872499    0.83457273   -2.23949049
H                 -0.96533555   -0.30999395   -2.11741799
H                  1.12208139    2.09942625    0.22124191
H                 -1.07671055    3.05839622    0.46184092
H                 -2.81407445   -0.02398059    0.67650046
H                  0.04220351    1.33615276    2.01180888
H                 -0.11531529   -1.06445929    1.08312323



--Link1--
%oldchk=Cr_2_HSE06.chk
%chk=Cr_2_HSE06.chk_solvated
#p HSEH1PBE scf=(maxcycles=500,xqc,maxconventional=50) scrf=(cpcm,solvent=water) geom=allcheck guess=read chkbasis




