%chk=Cr_2_HSE06
#p HSEH1PBE 6-31+G(2df,p) scf=(maxcycles=500,xqc,maxconventional=50) scrf=(cpcm,solvent=water)

title

2  5
Cr        -0.00000        0.00001       -0.00013
O         -0.03384        0.04600       -2.08133
H         -0.82502        0.05803       -2.63331
O         -0.00022       -2.08565       -0.04605
H          0.01167       -2.67191        0.71929
O          2.36670        0.00043       -0.02913
H          2.95089        0.76761       -0.02217
O          0.03384       -0.04597        2.08106
H         -0.73675       -0.05850        2.66137
O          0.00021        2.08568        0.04568
H          0.01226        2.63780        0.83599
O         -2.36668       -0.00051        0.03008
H         -2.95084       -0.76771        0.02309
H         -2.95079        0.76630        0.05697
H         -0.01211       -2.63774       -0.83639
H          0.73675        0.05860       -2.66165
H         -0.01184        2.67188       -0.71969
H          2.95077       -0.76640       -0.05590
H          0.82503       -0.05805        2.63301
O 1.7984384001896385 -5.263157894797982e-06 4.125041578947369
H 2.6984384001896387 -5.263157894797982e-06 4.125041578947369
H 1.5054270611781975 0.8509614548814903 4.125041578947369
O -2.1947549314558166 -2.010582011268455 3.3750415789473682
H -1.2947549314558167 -2.010582011268455 3.3750415789473682
H -2.4877662704672576 -1.1596152932290698 3.3750415789473682
O 0.3195467886706588 3.6410475871785155 2.625041578947368
H 1.2195467886706588 3.6410475871785155 2.625041578947368
H 0.02653544965921778 4.492014305217901 2.625041578947368
O 2.4889832191130914 -3.2464410618327966 1.8750415789473684
H 3.3889832191130913 -3.2464410618327966 1.8750415789473684
H 2.1959718801016503 -2.3954743437934116 1.8750415789473684
O -4.290499716641711 0.7589240039997469 1.1250415789473684
H -3.390499716641711 0.7589240039997469 1.1250415789473684
H -4.583511055653152 1.609890722039132 1.1250415789473684
O 3.783693760974522 2.4068699873830632 0.37504157894736867
H 4.683693760974522 2.4068699873830632 0.37504157894736867
H 3.490682421963081 3.2578367054224486 0.37504157894736867
O -1.164154409068993 -4.33060751175631 -0.3749584210526314
H -0.264154409068993 -4.33060751175631 -0.3749584210526314
H -1.457165748080434 -3.479640793716925 -0.3749584210526314
O -2.008219305775619 3.866701847312515 -1.124958421052631
H -1.1082193057756191 3.866701847312515 -1.124958421052631
H -2.30123064478706 4.7176685653519 -1.124958421052631
O 3.842546180727194 -1.4032963888095606 -1.8749584210526322
H 4.742546180727194 -1.4032963888095606 -1.8749584210526322
H 3.549534841715753 -0.5523296707701755 -1.8749584210526322
O -3.3785256857576176 -1.3946122047887795 -2.624958421052631
H -2.4785256857576177 -1.3946122047887795 -2.624958421052631
H -3.6715370247690586 -0.5436454867493943 -2.624958421052631
O 1.2615665631708222 2.695885830818506 -3.3749584210526318
H 2.161566563170822 2.695885830818506 -3.3749584210526318
H 0.9685552241593811 3.546852548857891 -3.3749584210526318
O 0.5382447007686803 -1.7160091506278636 -4.124958421052631
H 1.4382447007686803 -1.7160091506278636 -4.124958421052631
H 0.24523336175723925 -0.8650424325884785 -4.124958421052631
O 2.3231710643808525 0.1457295929059033 6.138930467836256
H 3.2231710643808524 0.1457295929059033 6.138930467836256
H 2.0301597253694115 0.9966963109452884 6.138930467836256
O -2.462564971909929 -2.281313917319014 5.416708245614035
H -1.562564971909929 -2.281313917319014 5.416708245614035
H -2.75557631092137 -1.4303471992796288 5.416708245614035
O 0.5798572381253928 4.6243124466693315 4.694486023391812
H 1.4798572381253927 4.6243124466693315 4.694486023391812
H 0.2868458991139518 5.4752791647087165 4.694486023391812
O 3.3172520265032492 -3.9373790974498952 3.9722638011695905
H 4.21725202650325 -3.9373790974498952 3.9722638011695905
H 3.024240687491808 -3.0864123794105103 3.9722638011695905
O -5.3563058887760215 1.1262285533157526 3.250041578947369
H -4.456305888776021 1.1262285533157526 3.250041578947369
H -5.649317227787463 1.9771952713551377 3.250041578947369
O 5.239511206732335 3.3598451964135556 2.527819356725146
H 6.139511206732335 3.3598451964135556 2.527819356725146
H 4.946499867720894 4.210811914452941 2.527819356725146
O -1.4342109392918347 -5.8843834864662865 1.8055971345029236
H -0.5342109392918347 -5.8843834864662865 1.8055971345029236
H -1.7272222783032758 -5.0334167684269016 1.8055971345029236
O -2.7671840378778505 5.833463279607388 1.0833749122807015
H -1.8671840378778506 5.833463279607388 1.0833749122807015
H -3.0601953768892916 6.684429997646773 1.0833749122807015
O 6.2829678607686645 -2.080577874677276 0.36115269005847955
H 7.182967860768665 -2.080577874677276 0.36115269005847955
H 5.9899565217572235 -1.2296111566378907 0.36115269005847955
O -5.812158044295621 -2.3305567639029507 -0.3610695321637426
H -4.91215804429562 -2.3305567639029507 -0.3610695321637426
H -6.105169383307062 -1.4795900458635656 -0.3610695321637426
O 2.90327453647208 5.950658829859798 -1.0832917543859648
H 3.8032745364720797 5.950658829859798 -1.0832917543859648
H 2.6102631974606387 6.801625547899183 -1.0832917543859648
O 2.0555956810099287 -5.81225707873785 -1.805513976608187
H 2.9555956810099286 -5.81225707873785 -1.805513976608187
H 1.7625843419984877 -4.961290360698465 -1.805513976608187
O -4.994378900779037 3.1483338403835535 -2.527736198830409
H -4.094378900779037 3.1483338403835535 -2.527736198830409
H -5.287390239790478 3.999300558422939 -2.527736198830409
O 5.684678123432124 1.3544207144386164 -3.2499584210526327
H 6.584678123432124 1.3544207144386164 -3.2499584210526327
H 5.391666784420683 2.205387432478002 -3.2499584210526327
O -2.7722557809768187 -4.063235447321198 -3.9721806432748537
H -1.8722557809768188 -4.063235447321198 -3.9721806432748537
H -3.0652671199882597 -3.2122687292818126 -3.9721806432748537
O -0.39094906308428795 4.604248076712835 -4.694402865497077
H 0.5090509369157121 4.604248076712835 -4.694402865497077
H -0.683960402095729 5.45521479475222 -4.694402865497077
O 2.9342005525877566 -2.1697749832215583 -5.416625087719298
H 3.8342005525877565 -2.1697749832215583 -5.416625087719298
H 2.6411892135763155 -1.318808265182173 -5.416625087719298
O -1.947728885521541 0.057459753149714035 -6.138847309941521
H -1.0477288855215412 0.057459753149714035 -6.138847309941521
H -2.240740224532982 0.9084264711890992 -6.138847309941521



