%chk=Cr_3_HSE06
#p HSEH1PBE 6-31+G(2df,p) scf=(maxcycles=500,xqc,maxconventional=50) scrf=(cpcm,solvent=water)

title

3  4
Cr        -0.00002        0.00001        0.00003
O         -1.39512        0.10647       -1.42181
H         -2.20919       -0.42400       -1.46522
O          0.96740       -1.39108       -1.05274
H          1.79529       -1.83131       -0.79434
O          1.04804        1.42565       -0.92111
H          0.96910        2.38300       -0.76874
O          1.39499       -0.10615        1.42199
H          1.38316       -0.69959        2.19248
O         -0.96745        1.39108        1.05275
H         -1.79133        1.83670        0.79082
O         -1.04781       -1.42599        0.92089
H         -0.96601       -2.38345        0.77071
H         -1.73105       -1.28674        1.59896
H          0.69469       -1.74887       -1.91507
H         -1.38166        0.69773       -2.19395
H         -0.69879        1.74349        1.91853
H          1.72870        1.28607       -1.60170
H          2.20722        0.42696        1.46726
O 1.7984452422949018 -1.0526315789192047e-06 4.1249863157894735
H 2.698445242294902 -1.0526315789192047e-06 4.1249863157894735
H 1.5054339032834607 0.8509656654078063 4.1249863157894735
O -2.1947480893505533 -2.010577800742139 3.3749863157894735
H -1.2947480893505534 -2.010577800742139 3.3749863157894735
H -2.4877594283619944 -1.1596110827027537 3.3749863157894735
O 0.31955363077592197 3.6410517977048316 2.624986315789473
H 1.219553630775922 3.6410517977048316 2.624986315789473
H 0.026542291764480974 4.492018515744217 2.624986315789473
O 2.4889900612183546 -3.2464368513064805 1.8749863157894737
H 3.3889900612183546 -3.2464368513064805 1.8749863157894737
H 2.1959787222069136 -2.3954701332670956 1.8749863157894737
O -4.290492874536448 0.7589282145260628 1.1249863157894737
H -3.390492874536448 0.7589282145260628 1.1249863157894737
H -4.583504213547889 1.6098949325654481 1.1249863157894737
O 3.7837006030797853 2.4068741979093793 0.37498631578947395
H 4.683700603079785 2.4068741979093793 0.37498631578947395
H 3.4906892640683442 3.2578409159487647 0.37498631578947395
O -1.1641475669637298 -4.330603301229995 -0.3750136842105261
H -0.26414756696372976 -4.330603301229995 -0.3750136842105261
H -1.4571589059751708 -3.4796365831906098 -0.3750136842105261
O -2.0082124636703558 3.8667060578388313 -1.1250136842105258
H -1.1082124636703559 3.8667060578388313 -1.1250136842105258
H -2.301223802681797 4.717672775878216 -1.1250136842105258
O 3.8425530228324574 -1.4032921782832448 -1.875013684210527
H 4.742553022832458 -1.4032921782832448 -1.875013684210527
H 3.5495416838210163 -0.5523254602438596 -1.875013684210527
O -3.3785188436523543 -1.3946079942624636 -2.6250136842105256
H -2.4785188436523544 -1.3946079942624636 -2.6250136842105256
H -3.6715301826637954 -0.5436412762230785 -2.6250136842105256
O 1.2615734052760854 2.695890041344822 -3.3750136842105265
H 2.1615734052760853 2.695890041344822 -3.3750136842105265
H 0.9685620662646444 3.546856759384207 -3.3750136842105265
O 0.5382515428739434 -1.7160049401015478 -4.1250136842105265
H 1.4382515428739433 -1.7160049401015478 -4.1250136842105265
H 0.2452402038625024 -0.8650382220621626 -4.1250136842105265
O 2.3231779064861158 0.1457338034322192 6.138875204678361
H 3.2231779064861157 0.1457338034322192 6.138875204678361
H 2.0301665674746747 0.9967005214716044 6.138875204678361
O -2.4625581298046657 -2.281309706792698 5.41665298245614
H -1.5625581298046658 -2.281309706792698 5.41665298245614
H -2.7555694688161068 -1.4303429887533128 5.41665298245614
O 0.5798640802306558 4.6243166571956476 4.694430760233917
H 1.479864080230656 4.6243166571956476 4.694430760233917
H 0.28685274121921484 5.4752833752350325 4.694430760233917
O 3.3172588686085125 -3.937374886923579 3.9722085380116954
H 4.217258868608512 -3.937374886923579 3.9722085380116954
H 3.0242475295970714 -3.0864081688841942 3.9722085380116954
O -5.356299046670759 1.1262327638420686 3.249986315789474
H -4.456299046670758 1.1262327638420686 3.249986315789474
H -5.6493103856822 1.9771994818814538 3.249986315789474
O 5.239518048837597 3.3598494069398717 2.5277640935672507
H 6.139518048837598 3.3598494069398717 2.5277640935672507
H 4.946506709826156 4.210816124979257 2.5277640935672507
O -1.4342040971865717 -5.8843792759399705 1.8055418713450286
H -0.5342040971865717 -5.8843792759399705 1.8055418713450286
H -1.7272154361980128 -5.0334125579005855 1.8055418713450286
O -2.7671771957725873 5.833467490133704 1.0833196491228065
H -1.8671771957725873 5.833467490133704 1.0833196491228065
H -3.0601885347840283 6.684434208173089 1.0833196491228065
O 6.282974702873927 -2.08057366415096 0.3610974269005845
H 7.182974702873928 -2.08057366415096 0.3610974269005845
H 5.989963363862486 -1.2296069461115746 0.3610974269005845
O -5.812151202190358 -2.3305525533766347 -0.36112479532163766
H -4.9121512021903575 -2.3305525533766347 -0.36112479532163766
H -6.105162541201799 -1.4795858353372495 -0.36112479532163766
O 2.903281378577343 5.9506630403861145 -1.0833470175438598
H 3.803281378577343 5.9506630403861145 -1.0833470175438598
H 2.610270039565902 6.801629758425499 -1.0833470175438598
O 2.055602523115192 -5.812252868211534 -1.8055692397660819
H 2.955602523115192 -5.812252868211534 -1.8055692397660819
H 1.762591184103751 -4.961286150172149 -1.8055692397660819
O -4.9943720586737745 3.1483380509098695 -2.527791461988304
H -4.094372058673774 3.1483380509098695 -2.527791461988304
H -5.287383397685216 3.999304768949255 -2.527791461988304
O 5.684684965537387 1.3544249249649325 -3.250013684210528
H 6.584684965537387 1.3544249249649325 -3.250013684210528
H 5.391673626525946 2.205391643004318 -3.250013684210528
O -2.7722489388715554 -4.0632312367948815 -3.972235906432749
H -1.8722489388715555 -4.0632312367948815 -3.972235906432749
H -3.0652602778829965 -3.2122645187554966 -3.972235906432749
O -0.3909422209790248 4.604252287239151 -4.694458128654972
H 0.5090577790209752 4.604252287239151 -4.694458128654972
H -0.6839535599904658 5.455219005278536 -4.694458128654972
O 2.93420739469302 -2.169770772695242 -5.4166803508771935
H 3.8342073946930197 -2.169770772695242 -5.4166803508771935
H 2.641196055681579 -1.318804054655857 -5.4166803508771935
O -1.947722043416278 0.05746396367602995 -6.138902573099416
H -1.047722043416278 0.05746396367602995 -6.138902573099416
H -2.240733382427719 0.9084306817154151 -6.138902573099416



