%chk=Mn_2_B3LYP
#p B3LYP empiricaldispersion=gd3 6-31+G(2df,p) scf=(maxcycles=500,xqc,maxconventional=50) scrf=(cpcm,solvent=water)

title

2  6
Mn         0.00001        0.00002       -0.00017
O         -0.77934        2.00210        0.43938
H         -1.45350        2.22597        1.09631
O         -1.56486       -0.27635       -1.51107
H         -1.70078       -1.05944       -2.06294
O          1.32473        0.84883       -1.52733
H          2.22712        1.17054       -1.39220
O          0.77686       -2.00331       -0.43808
H          0.51396       -2.82949       -0.00795
O          1.56619        0.27819        1.50927
H          1.69956        1.06022        2.06345
O         -1.32364       -0.84947        1.52791
H         -2.22623       -1.17101        1.39366
H         -1.11621       -0.97461        2.46461
H         -2.25128        0.36138       -1.75246
H         -0.51481        2.82967        0.01360
H          2.25531       -0.35787        1.74814
H          1.11823        0.97372       -2.46425
H          1.44902       -2.22940       -1.09642
O 1.7984547159791122 -1.631578947367423e-05 4.125182105263158
H 2.6984547159791124 -1.631578947367423e-05 4.125182105263158
H 1.5054433769676712 0.8509504022499115 4.125182105263158
O -2.194738615666343 -2.010593063900034 3.375182105263158
H -1.294738615666343 -2.010593063900034 3.375182105263158
H -2.487749954677784 -1.1596263458606486 3.375182105263158
O 0.3195631044601326 3.6410365345469367 2.6251821052631574
H 1.2195631044601325 3.6410365345469367 2.6251821052631574
H 0.02655176544869159 4.492003252586322 2.6251821052631574
O 2.488999534902565 -3.2464521144643754 1.8751821052631579
H 3.388999534902565 -3.2464521144643754 1.8751821052631579
H 2.195988195891124 -2.3954853964249905 1.8751821052631579
O -4.290483400852237 0.758912951368168 1.1251821052631579
H -3.390483400852237 0.758912951368168 1.1251821052631579
H -4.583494739863678 1.6098796694075532 1.1251821052631579
O 3.7837100767639957 2.4068589347514844 0.37518210526315815
H 4.683710076763996 2.4068589347514844 0.37518210526315815
H 3.4906987377525547 3.2578256527908698 0.37518210526315815
O -1.1641380932795193 -4.330618564387889 -0.3748178947368419
H -0.2641380932795193 -4.330618564387889 -0.3748178947368419
H -1.4571494322909604 -3.4796518463485038 -0.3748178947368419
O -2.0082029899861453 3.8666907946809363 -1.1248178947368417
H -1.1082029899861454 3.8666907946809363 -1.1248178947368417
H -2.3012143289975864 4.717657512720321 -1.1248178947368417
O 3.842562496516668 -1.4033074414411395 -1.8748178947368428
H 4.742562496516668 -1.4033074414411395 -1.8748178947368428
H 3.5495511575052268 -0.5523407234017543 -1.8748178947368428
O -3.378509369968144 -1.3946232574203583 -2.6248178947368412
H -2.478509369968144 -1.3946232574203583 -2.6248178947368412
H -3.671520708979585 -0.5436565393809731 -2.6248178947368412
O 1.2615828789602959 2.6958747781869272 -3.374817894736842
H 2.1615828789602958 2.6958747781869272 -3.374817894736842
H 0.9685715399488548 3.546841496226312 -3.374817894736842
O 0.5382610165581541 -1.7160202032594425 -4.124817894736842
H 1.4382610165581542 -1.7160202032594425 -4.124817894736842
H 0.24524967754671306 -0.8650534852200573 -4.124817894736842
O 2.323187380170326 0.14571854027432446 6.139070994152045
H 3.223187380170326 0.14571854027432446 6.139070994152045
H 2.030176041158885 0.9966852583137096 6.139070994152045
O -2.4625486561204553 -2.281324969950593 5.416848771929824
H -1.5625486561204553 -2.281324969950593 5.416848771929824
H -2.7555599951318963 -1.4303582519112077 5.416848771929824
O 0.5798735539148665 4.624301394037753 4.694626549707602
H 1.4798735539148664 4.624301394037753 4.694626549707602
H 0.2868622149034255 5.475268112077138 4.694626549707602
O 3.317268342292723 -3.937390150081474 3.9724043274853797
H 4.217268342292723 -3.937390150081474 3.9724043274853797
H 3.024257003281282 -3.086423432042089 3.9724043274853797
O -5.356289572986548 1.1262175006841737 3.2501821052631583
H -4.456289572986548 1.1262175006841737 3.2501821052631583
H -5.649300911997989 1.9771842187235589 3.2501821052631583
O 5.239527522521808 3.3598341437819768 2.527959883040935
H 6.139527522521808 3.3598341437819768 2.527959883040935
H 4.946516183510367 4.210800861821362 2.527959883040935
O -1.434194623502361 -5.884394539097865 1.805737660818713
H -0.534194623502361 -5.884394539097865 1.805737660818713
H -1.727205962513802 -5.03342782105848 1.805737660818713
O -2.767167722088377 5.833452226975809 1.083515438596491
H -1.867167722088377 5.833452226975809 1.083515438596491
H -3.060179061099818 6.684418945015194 1.083515438596491
O 6.282984176558138 -2.0805889273088547 0.3612932163742689
H 7.182984176558138 -2.0805889273088547 0.3612932163742689
H 5.989972837546697 -1.2296222092694695 0.3612932163742689
O -5.812141728506147 -2.3305678165345296 -0.36092900584795323
H -4.912141728506147 -2.3305678165345296 -0.36092900584795323
H -6.1051530675175885 -1.4796010984951444 -0.36092900584795323
O 2.9032908522615535 5.95064777722822 -1.0831512280701754
H 3.8032908522615534 5.95064777722822 -1.0831512280701754
H 2.6102795132501124 6.8016144952676045 -1.0831512280701754
O 2.0556119967994024 -5.812268131369429 -1.8053734502923975
H 2.9556119967994023 -5.812268131369429 -1.8053734502923975
H 1.7626006577879614 -4.961301413330044 -1.8053734502923975
O -4.994362584989564 3.1483227877519746 -2.52759567251462
H -4.094362584989564 3.1483227877519746 -2.52759567251462
H -5.287373924001005 3.99928950579136 -2.52759567251462
O 5.684694439221597 1.3544096618070376 -3.2498178947368435
H 6.584694439221598 1.3544096618070376 -3.2498178947368435
H 5.391683100210156 2.205376379846423 -3.2498178947368435
O -2.772239465187345 -4.063246499952776 -3.9720401169590644
H -1.872239465187345 -4.063246499952776 -3.9720401169590644
H -3.065250804198786 -3.2122797819133915 -3.9720401169590644
O -0.3909327472948142 4.6042370240812565 -4.694262339181288
H 0.5090672527051858 4.6042370240812565 -4.694262339181288
H -0.6839440863062551 5.455203742120641 -4.694262339181288
O 2.9342168683772303 -2.169786035853137 -5.416484561403509
H 3.83421686837723 -2.169786035853137 -5.416484561403509
H 2.6412055293657892 -1.318819317813752 -5.416484561403509
O -1.9477125697320674 0.05744870051813521 -6.138706783625731
H -1.0477125697320675 0.05744870051813521 -6.138706783625731
H -2.2407239087435085 0.9084154185575204 -6.138706783625731



