%chk=Mn_2_HSE06
#p HSEH1PBE 6-31+G(2df,p) scf=(maxcycles=500,xqc,maxconventional=50) scrf=(cpcm,solvent=water)

title

2  6
Mn        -0.00003        0.00004        0.00003
O         -1.31110        1.28507       -1.19546
H         -2.19679        1.58349       -0.95747
O         -0.85629       -1.77103       -0.96402
H         -0.61770       -2.69007       -0.79491
O          1.53265        0.10991       -1.56144
H          2.23736        0.76471       -1.63069
O          1.31160       -1.28472        1.19527
H          1.11521       -1.66144        2.06110
O          0.85619        1.77084        0.96450
H          0.61771        2.68995        0.79562
O         -1.53301       -0.11015        1.56110
H         -2.23766       -0.76504        1.62995
H         -1.63366        0.48630        2.31229
H         -1.54405       -1.78240       -1.64004
H         -1.11433        1.66160       -2.06129
H          1.54391        1.78195        1.64057
H          1.63300       -0.48675       -2.31249
H          2.19733       -1.58281        0.95697
O 1.7984547159791122 -2.8947368421055286e-05 4.1249784210526315
H 2.6984547159791124 -2.8947368421055286e-05 4.1249784210526315
H 1.5054433769676712 0.8509377706709641 4.1249784210526315
O -2.194738615666343 -2.010605695478981 3.3749784210526315
H -1.294738615666343 -2.010605695478981 3.3749784210526315
H -2.487749954677784 -1.1596389774395959 3.3749784210526315
O 0.31956310446013253 3.6410239029679894 2.624978421052631
H 1.2195631044601325 3.6410239029679894 2.624978421052631
H 0.026551765448691533 4.491990621007375 2.624978421052631
O 2.488999534902565 -3.2464647460433227 1.8749784210526315
H 3.388999534902565 -3.2464647460433227 1.8749784210526315
H 2.195988195891124 -2.3954980280039377 1.8749784210526315
O -4.290483400852237 0.7589003197892207 1.1249784210526315
H -3.390483400852237 0.7589003197892207 1.1249784210526315
H -4.583494739863678 1.609867037828606 1.1249784210526315
O 3.7837100767639957 2.406846303172537 0.3749784210526318
H 4.683710076763996 2.406846303172537 0.3749784210526318
H 3.4906987377525547 3.2578130212119225 0.3749784210526318
O -1.1641380932795193 -4.330631195966837 -0.37502157894736826
H -0.2641380932795193 -4.330631195966837 -0.37502157894736826
H -1.4571494322909604 -3.479664477927452 -0.37502157894736826
O -2.0082029899861453 3.866678163101989 -1.125021578947368
H -1.1082029899861454 3.866678163101989 -1.125021578947368
H -2.3012143289975864 4.717644881141374 -1.125021578947368
O 3.842562496516668 -1.4033200730200868 -1.8750215789473692
H 4.742562496516668 -1.4033200730200868 -1.8750215789473692
H 3.5495511575052268 -0.5523533549807016 -1.8750215789473692
O -3.378509369968144 -1.3946358889993056 -2.6250215789473677
H -2.478509369968144 -1.3946358889993056 -2.6250215789473677
H -3.671520708979585 -0.5436691709599204 -2.6250215789473677
O 1.2615828789602959 2.69586214660798 -3.3750215789473685
H 2.1615828789602958 2.69586214660798 -3.3750215789473685
H 0.9685715399488548 3.546828864647365 -3.3750215789473685
O 0.538261016558154 -1.7160328348383898 -4.1250215789473685
H 1.438261016558154 -1.7160328348383898 -4.1250215789473685
H 0.24524967754671295 -0.8650661167990046 -4.1250215789473685
O 2.323187380170326 0.14570590869537706 6.13886730994152
H 3.223187380170326 0.14570590869537706 6.13886730994152
H 2.030176041158885 0.9966726267347622 6.13886730994152
O -2.4625486561204553 -2.28133760152954 5.416645087719298
H -1.5625486561204553 -2.28133760152954 5.416645087719298
H -2.7555599951318963 -1.430370883490155 5.416645087719298
O 0.5798735539148665 4.624288762458805 4.694422865497076
H 1.4798735539148664 4.624288762458805 4.694422865497076
H 0.2868622149034255 5.47525548049819 4.694422865497076
O 3.317268342292723 -3.9374027816604213 3.972200643274854
H 4.217268342292723 -3.9374027816604213 3.972200643274854
H 3.024257003281282 -3.0864360636210364 3.972200643274854
O -5.356289572986548 1.1262048691052264 3.2499784210526323
H -4.456289572986548 1.1262048691052264 3.2499784210526323
H -5.649300911997989 1.9771715871446116 3.2499784210526323
O 5.239527522521808 3.3598215122030295 2.527756198830409
H 6.139527522521808 3.3598215122030295 2.527756198830409
H 4.946516183510367 4.210788230242414 2.527756198830409
O -1.434194623502361 -5.884407170676813 1.805533976608187
H -0.534194623502361 -5.884407170676813 1.805533976608187
H -1.727205962513802 -5.033440452637428 1.805533976608187
O -2.767167722088377 5.833439595396862 1.083311754385965
H -1.867167722088377 5.833439595396862 1.083311754385965
H -3.060179061099818 6.684406313436247 1.083311754385965
O 6.282984176558138 -2.080601558887802 0.36108953216374295
H 7.182984176558138 -2.080601558887802 0.36108953216374295
H 5.989972837546697 -1.2296348408484168 0.36108953216374295
O -5.812141728506147 -2.330580448113477 -0.3611326900584792
H -4.912141728506147 -2.330580448113477 -0.3611326900584792
H -6.1051530675175885 -1.4796137300740917 -0.3611326900584792
O 2.9032908522615535 5.950635145649272 -1.0833549122807014
H 3.8032908522615534 5.950635145649272 -1.0833549122807014
H 2.6102795132501124 6.801601863688657 -1.0833549122807014
O 2.0556119967994024 -5.812280762948376 -1.8055771345029235
H 2.9556119967994023 -5.812280762948376 -1.8055771345029235
H 1.7626006577879614 -4.961314044908991 -1.8055771345029235
O -4.994362584989564 3.1483101561730273 -2.5277993567251458
H -4.094362584989564 3.1483101561730273 -2.5277993567251458
H -5.287373924001005 3.9992768742124127 -2.5277993567251458
O 5.684694439221597 1.3543970302280903 -3.2500215789473694
H 6.584694439221598 1.3543970302280903 -3.2500215789473694
H 5.391683100210156 2.2053637482674757 -3.2500215789473694
O -2.772239465187345 -4.063259131531724 -3.9722438011695904
H -1.872239465187345 -4.063259131531724 -3.9722438011695904
H -3.065250804198786 -3.2122924134923387 -3.9722438011695904
O -0.3909327472948142 4.604224392502309 -4.694466023391813
H 0.5090672527051858 4.604224392502309 -4.694466023391813
H -0.6839440863062551 5.455191110541694 -4.694466023391813
O 2.9342168683772303 -2.1697986674320844 -5.416688245614035
H 3.83421686837723 -2.1697986674320844 -5.416688245614035
H 2.6412055293657892 -1.3188319493926992 -5.416688245614035
O -1.9477125697320674 0.057436068939187804 -6.138910467836257
H -1.0477125697320675 0.057436068939187804 -6.138910467836257
H -2.2407239087435085 0.908402786978573 -6.138910467836257



