%chk=Mn_3_HSE06
#p HSEH1PBE 6-31+G(2df,p) scf=(maxcycles=500,xqc,maxconventional=50) scrf=(cpcm,solvent=water)

title

3  5
Mn        -0.00011       -0.00002       -0.00006
O          0.00027       -0.02272       -1.95559
H         -0.79497       -0.02695       -2.51919
O          0.00092       -1.96093        0.02232
H          0.00783       -2.51966        0.81961
O          2.14981        0.00125        0.00015
H          2.73643        0.77516       -0.00576
O          0.00082        0.02269        1.95545
H         -0.79430        0.02603        2.51921
O         -0.00191        1.96089       -0.02290
H         -0.00732        2.53775        0.76145
O         -2.14982       -0.00113        0.00072
H         -2.73652       -0.77490        0.01272
H         -2.73702        0.77228       -0.01079
H         -0.00611       -2.53751       -0.76215
H          0.79606       -0.03110       -2.51836
H          0.00413        2.51933       -0.82034
H          2.73712       -0.77213        0.00606
H          0.79674        0.03180        2.51802
O 1.7985447159791124 6.842105263165103e-06 4.12503
H 2.6985447159791125 6.842105263165103e-06 4.12503
H 1.5055333769676713 0.8509735601446483 4.12503
O -2.1946486156663427 -2.010569906005297 3.37503
H -1.2946486156663428 -2.010569906005297 3.37503
H -2.487659954677784 -1.1596031879659117 3.37503
O 0.31965310446013256 3.6410596924416736 2.6250299999999998
H 1.2196531044601326 3.6410596924416736 2.6250299999999998
H 0.026641765448691568 4.492026410481059 2.6250299999999998
O 2.4890895349025652 -3.2464289565696385 1.87503
H 3.389089534902565 -3.2464289565696385 1.87503
H 2.196078195891124 -2.3954622385302535 1.87503
O -4.2903934008522375 0.7589361092629049 1.12503
H -3.3903934008522376 0.7589361092629049 1.12503
H -4.583404739863679 1.6099028273022902 1.12503
O 3.783800076763996 2.4068820926462213 0.37503000000000025
H 4.683800076763996 2.4068820926462213 0.37503000000000025
H 3.490788737752555 3.2578488106856067 0.37503000000000025
O -1.1640480932795192 -4.330595406493153 -0.3749699999999998
H -0.26404809327951917 -4.330595406493153 -0.3749699999999998
H -1.4570594322909602 -3.4796286884537677 -0.3749699999999998
O -2.008112989986145 3.8667139525756733 -1.1249699999999996
H -1.1081129899861453 3.8667139525756733 -1.1249699999999996
H -2.3011243289975862 4.717680670615058 -1.1249699999999996
O 3.842652496516668 -1.4032842835464026 -1.8749700000000007
H 4.742652496516668 -1.4032842835464026 -1.8749700000000007
H 3.549641157505227 -0.5523175655070174 -1.8749700000000007
O -3.3784193699681437 -1.3946000995256214 -2.624969999999999
H -2.478419369968144 -1.3946000995256214 -2.624969999999999
H -3.671430708979585 -0.5436333814862362 -2.624969999999999
O 1.261672878960296 2.695897936081664 -3.37497
H 2.161672878960296 2.695897936081664 -3.37497
H 0.968661539948855 3.546864654121049 -3.37497
O 0.538351016558154 -1.7159970453647055 -4.12497
H 1.438351016558154 -1.7159970453647055 -4.12497
H 0.245339677546713 -0.8650303273253204 -4.12497
O 2.3232773801703264 0.14574169816906132 6.138918888888889
H 3.2232773801703263 0.14574169816906132 6.138918888888889
H 2.0302660411588853 0.9967084162084465 6.138918888888889
O -2.462458656120455 -2.281301812055856 5.416696666666668
H -1.5624586561204552 -2.281301812055856 5.416696666666668
H -2.755469995131896 -1.4303350940164707 5.416696666666668
O 0.5799635539148665 4.62432455193249 4.694474444444445
H 1.4799635539148666 4.62432455193249 4.694474444444445
H 0.28695221490342554 5.4752912699718745 4.694474444444445
O 3.317358342292723 -3.937366992186737 3.972252222222223
H 4.217358342292723 -3.937366992186737 3.972252222222223
H 3.024347003281282 -3.086400274147352 3.972252222222223
O -5.356199572986548 1.1262406585789106 3.2500300000000015
H -4.456199572986548 1.1262406585789106 3.2500300000000015
H -5.649210911997989 1.9772073766182958 3.2500300000000015
O 5.239617522521808 3.3598573016767137 2.5278077777777783
H 6.139617522521808 3.3598573016767137 2.5278077777777783
H 4.946606183510367 4.210824019716099 2.5278077777777783
O -1.434104623502361 -5.884371381203128 1.8055855555555564
H -0.5341046235023609 -5.884371381203128 1.8055855555555564
H -1.727115962513802 -5.0334046631637435 1.8055855555555564
O -2.7670777220883767 5.833475384870546 1.0833633333333343
H -1.8670777220883767 5.833475384870546 1.0833633333333343
H -3.0600890610998177 6.684442102909931 1.0833633333333343
O 6.283074176558138 -2.0805657694141177 0.36114111111111225
H 7.183074176558138 -2.0805657694141177 0.36114111111111225
H 5.990062837546697 -1.2295990513747326 0.36114111111111225
O -5.812051728506147 -2.3305446586397927 -0.3610811111111099
H -4.912051728506147 -2.3305446586397927 -0.3610811111111099
H -6.105063067517588 -1.4795779406004075 -0.3610811111111099
O 2.9033808522615536 5.9506709351229565 -1.083303333333332
H 3.8033808522615535 5.9506709351229565 -1.083303333333332
H 2.6103695132501126 6.8016376531623415 -1.083303333333332
O 2.0557019967994026 -5.812244973474692 -1.805525555555554
H 2.9557019967994025 -5.812244973474692 -1.805525555555554
H 1.7626906577879615 -4.961278255435307 -1.805525555555554
O -4.994272584989564 3.1483459456467116 -2.5277477777777766
H -4.094272584989564 3.1483459456467116 -2.5277477777777766
H -5.287283924001005 3.999312663686097 -2.5277477777777766
O 5.684784439221597 1.3544328197017745 -3.2499700000000002
H 6.584784439221598 1.3544328197017745 -3.2499700000000002
H 5.391773100210156 2.20539953774116 -3.2499700000000002
O -2.772149465187345 -4.0632233420580395 -3.9721922222222212
H -1.872149465187345 -4.0632233420580395 -3.9721922222222212
H -3.065160804198786 -3.2122566240186545 -3.9721922222222212
O -0.39084274729481416 4.604260181975993 -4.694414444444444
H 0.5091572527051859 4.604260181975993 -4.694414444444444
H -0.6838540863062552 5.455226900015378 -4.694414444444444
O 2.9343068683772304 -2.1697628779584 -5.416636666666665
H 3.8343068683772303 -2.1697628779584 -5.416636666666665
H 2.6412955293657894 -1.318796159919015 -5.416636666666665
O -1.9476225697320673 0.05747185841287207 -6.138858888888888
H -1.0476225697320674 0.05747185841287207 -6.138858888888888
H -2.2406339087435083 0.9084385764522572 -6.138858888888888



