%chk=Ti_2_B3LYP
#p B3LYP empiricaldispersion=gd3 6-31+G(2df,p) scf=(maxcycles=500,xqc,maxconventional=50) scrf=(cpcm,solvent=water)

title

2  3
Ti        -0.00001        0.00001       -0.00000
O          0.11876       -1.83440       -1.23154
H         -0.51211       -2.12770       -1.90399
O          1.64693       -0.81201        1.23437
H          2.56008       -0.49199        1.25361
O          1.52798        1.01781       -1.23474
H          1.70715        1.96863       -1.25601
O         -0.11875        1.83437        1.23160
H         -0.85251        2.46512        1.25081
O         -1.64691        0.81203       -1.23440
H         -2.56005        0.49199       -1.25370
O         -1.52800       -1.01782        1.23472
H         -1.70714       -1.96864        1.25594
H         -2.09645       -0.61694        1.90730
H          1.58484       -1.50358        1.90823
H          0.85251       -2.46516       -1.25066
H         -1.58482        1.50366       -1.90820
H          2.09640        0.61690       -1.90734
H          0.51218        2.12766        1.90401
O 1.798441031768586 -3.157894736792674e-06 4.125000526315789
H 2.698441031768586 -3.157894736792674e-06 4.125000526315789
H 1.5054296927571449 0.8509635601446484 4.125000526315789
O -2.1947522998768694 -2.010579906005297 3.3750005263157896
H -1.2947522998768695 -2.010579906005297 3.3750005263157896
H -2.4877636388883104 -1.1596131879659117 3.3750005263157896
O 0.31954942024960625 3.6410496924416735 2.625000526315789
H 1.2195494202496062 3.6410496924416735 2.625000526315789
H 0.026538081238165256 4.4920164104810585 2.625000526315789
O 2.4889858506920386 -3.2464389565696385 1.8750005263157894
H 3.3889858506920385 -3.2464389565696385 1.8750005263157894
H 2.1959745116805975 -2.395472238530253 1.8750005263157894
O -4.290497085062763 0.7589261092629049 1.1250005263157894
H -3.3904970850627634 0.7589261092629049 1.1250005263157894
H -4.583508424074204 1.60989282730229 1.1250005263157894
O 3.7836963925534692 2.4068720926462213 0.3750005263157898
H 4.683696392553469 2.4068720926462213 0.3750005263157898
H 3.490685053542028 3.257838810685606 0.3750005263157898
O -1.1641517774900456 -4.330605406493152 -0.37499947368421027
H -0.2641517774900456 -4.330605406493152 -0.37499947368421027
H -1.4571631165014867 -3.4796386884537673 -0.37499947368421027
O -2.008216674196672 3.8667039525756732 -1.1249994736842102
H -1.108216674196672 3.8667039525756732 -1.1249994736842102
H -2.301228013208113 4.717670670615059 -1.1249994736842102
O 3.8425488123061413 -1.4032942835464026 -1.8749994736842113
H 4.742548812306142 -1.4032942835464026 -1.8749994736842113
H 3.5495374732947003 -0.5523275655070174 -1.8749994736842113
O -3.3785230541786704 -1.3946100995256214 -2.6249994736842095
H -2.4785230541786705 -1.3946100995256214 -2.6249994736842095
H -3.6715343931901114 -0.5436433814862363 -2.6249994736842095
O 1.2615691947497696 2.695887936081664 -3.3749994736842104
H 2.1615691947497697 2.695887936081664 -3.3749994736842104
H 0.9685578557383285 3.5468546541210495 -3.3749994736842104
O 0.5382473323476277 -1.7160070453647056 -4.124999473684211
H 1.4382473323476277 -1.7160070453647056 -4.124999473684211
H 0.24523599333618668 -0.8650403273253204 -4.124999473684211
O 2.3231736959597997 0.14573169816906129 6.138889415204678
H 3.2231736959597996 0.14573169816906129 6.138889415204678
H 2.0301623569483587 0.9966984162084465 6.138889415204678
O -2.4625623403309818 -2.281311812055856 5.416667192982456
H -1.5625623403309818 -2.281311812055856 5.416667192982456
H -2.755573679342423 -1.4303450940164708 5.416667192982456
O 0.57985986970434 4.624314551932489 4.694444970760234
H 1.47985986970434 4.624314551932489 4.694444970760234
H 0.286848530692899 5.475281269971874 4.694444970760234
O 3.3172546580821964 -3.937376992186737 3.972222748538011
H 4.217254658082196 -3.937376992186737 3.972222748538011
H 3.0242433190707554 -3.086410274147352 3.972222748538011
O -5.356303257197074 1.1262306585789106 3.2500005263157896
H -4.4563032571970735 1.1262306585789106 3.2500005263157896
H -5.649314596208515 1.9771973766182958 3.2500005263157896
O 5.239513838311282 3.3598473016767136 2.5277783040935664
H 6.139513838311283 3.3598473016767136 2.5277783040935664
H 4.946502499299841 4.210814019716099 2.5277783040935664
O -1.4342083077128875 -5.884381381203129 1.8055560818713445
H -0.5342083077128875 -5.884381381203129 1.8055560818713445
H -1.7272196467243286 -5.033414663163744 1.8055560818713445
O -2.7671814062989033 5.833465384870546 1.0833338596491224
H -1.8671814062989034 5.833465384870546 1.0833338596491224
H -3.0601927453103444 6.684432102909931 1.0833338596491224
O 6.282970492347612 -2.080575769414118 0.36111163742690033
H 7.1829704923476125 -2.080575769414118 0.36111163742690033
H 5.989959153336171 -1.2296090513747326 0.36111163742690033
O -5.812155412716673 -2.3305546586397927 -0.3611105847953218
H -4.912155412716673 -2.3305546586397927 -0.3611105847953218
H -6.105166751728114 -1.4795879406004075 -0.3611105847953218
O 2.903277168051027 5.950660935122956 -1.0833328070175439
H 3.803277168051027 5.950660935122956 -1.0833328070175439
H 2.610265829039586 6.801627653162341 -1.0833328070175439
O 2.055598312588876 -5.812254973474692 -1.805555029239766
H 2.955598312588876 -5.812254973474692 -1.805555029239766
H 1.7625869735774349 -4.961288255435307 -1.805555029239766
O -4.99437626920009 3.1483359456467115 -2.5277772514619885
H -4.094376269200089 3.1483359456467115 -2.5277772514619885
H -5.287387608211531 3.9993026636860964 -2.5277772514619885
O 5.684680755011072 1.3544228197017745 -3.249999473684212
H 6.584680755011072 1.3544228197017745 -3.249999473684212
H 5.391669415999631 2.2053895377411594 -3.249999473684212
O -2.7722531493978715 -4.063233342058039 -3.972221695906433
H -1.8722531493978716 -4.063233342058039 -3.972221695906433
H -3.0652644884093125 -3.212266624018654 -3.972221695906433
O -0.3909464315053407 4.604250181975994 -4.6944439181286555
H 0.5090535684946593 4.604250181975994 -4.6944439181286555
H -0.6839577705167816 5.455216900015379 -4.6944439181286555
O 2.934203184166704 -2.1697728779584002 -5.416666140350877
H 3.8342031841667037 -2.1697728779584002 -5.416666140350877
H 2.6411918451552627 -1.318806159919015 -5.416666140350877
O -1.947726253942594 0.05746185841287203 -6.138888362573099
H -1.047726253942594 0.05746185841287203 -6.138888362573099
H -2.240737592954035 0.9084285764522572 -6.138888362573099



