%chk=catecholate_Oxidized_Structure.chk
#p B3LYP empiricaldispersion=gd3 scrf=(cpcm,solvent=water) scf=(maxcycles=500,xqc,maxconventional=1000) 6-31+G(2df,p)

Oxidized_Structure

-3 2
C         -2.40980       -0.76130       -0.28370
C         -2.92260        0.26010        0.50420
C         -2.08280        1.21280        1.06620
C         -0.71670        1.14540        0.81680
C         -0.17950        0.09420       -0.00780
C         -1.05020       -0.86200       -0.53680
O          1.09990        0.14330       -0.12080
O          0.21950        1.90350        1.30730
H         -3.08810       -1.49270       -0.71300
H         -3.99210        0.31420        0.67930
H         -2.48560        2.01260        1.67390
H         -0.66490       -1.65700       -1.16320
Fe         1.83800        1.78010        0.59980
C          3.78590        2.77840        5.09150
C          3.70200        4.07590        4.60730
C          3.21670        4.32550        3.32990
C          2.80860        3.25900        2.53220
C          2.89680        1.91700        3.02660
C          3.39200        1.69780        4.31600
O          2.50700        1.00310        2.19890
O          2.34370        3.35570        1.31620
H          4.16660        2.60800        6.09460
H          4.01840        4.90300        5.23560
H          3.15300        5.33890        2.95440
H          3.46080        0.68930        4.70470
C          4.05910        1.28240       -3.77970
C          2.92800        1.94440       -4.24290
C          1.95900        2.41130       -3.37170
C          2.10850        2.19390       -1.99690
C          3.28440        1.51900       -1.52540
C          4.24920        1.07220       -2.42160
O          3.33910        1.45900       -0.22000
O          1.32220        2.58600       -1.05660
H          4.79630        0.92480       -4.49070
H          2.80180        2.09250       -5.31120
H          1.07680        2.91460       -3.74680
H          5.12670        0.55240       -2.06070


