%chk=Fe_3_M06-2X_3_6.chk
#p M062X 6-31+G(2df,p) scf=(maxcycles=500,xqc,maxconventional=50) scrf=(cpcm,solvent=water)

Fe_3_M06-2X_solvated_radius_4

3 6
Fe        -0.00001       -0.00000       -0.00000
O         -1.33494        1.04642       -1.11681
H         -2.29896        0.90510       -1.14987
O          0.24565       -1.31659       -1.52640
H          0.83083       -2.09631       -1.52972
O          1.51084        1.13857       -0.73872
H          1.84597        1.97220       -0.36038
O          1.33495       -1.04637        1.11684
H          1.13170       -1.78318        1.72201
O         -0.24565        1.31658        1.52640
H         -0.83279        2.09481        1.53069
O         -1.51084       -1.13861        0.73869
H         -1.84679       -1.97157        0.35962
H         -2.03623       -0.95465        1.53902
H         -0.20001       -1.28811       -2.39300
H         -1.13175        1.78378       -1.72134
H          0.20200        1.28958        2.39202
H          2.03707        0.95392       -1.53833
H          2.29907       -0.90555        1.14926
O 1.7984426107159543 1.0526315789308914e-06 4.124998947368421
H 2.6984426107159543 1.0526315789308914e-06 4.124998947368421
H 1.5054312717045133 0.8509677706709641 4.124998947368421
O -2.194750720929501 -2.0105756954789813 3.374998947368421
H -1.294750720929501 -2.0105756954789813 3.374998947368421
H -2.487762059940942 -1.1596089774395961 3.374998947368421
O 0.3195509991969746 3.641053902967989 2.6249989473684208
H 1.2195509991969746 3.641053902967989 2.6249989473684208
H 0.02653966018553361 4.4920206210073745 2.6249989473684208
O 2.488987429639407 -3.246434746043323 1.874998947368421
H 3.388987429639407 -3.246434746043323 1.874998947368421
H 2.195976090627966 -2.395468028003938 1.874998947368421
O -4.290495506115395 0.7589303197892207 1.124998947368421
H -3.390495506115395 0.7589303197892207 1.124998947368421
H -4.583506845126836 1.6098970378286057 1.124998947368421
O 3.7836979715008376 2.406876303172537 0.3749989473684213
H 4.6836979715008376 2.406876303172537 0.3749989473684213
H 3.4906866324893966 3.2578430212119223 0.3749989473684213
O -1.1641501985426772 -4.330601195966836 -0.37500105263157874
H -0.2641501985426772 -4.330601195966836 -0.37500105263157874
H -1.4571615375541183 -3.4796344779274513 -0.37500105263157874
O -2.0082150952493034 3.866708163101989 -1.1250010526315786
H -1.1082150952493035 3.866708163101989 -1.1250010526315786
H -2.3012264342607445 4.717674881141374 -1.1250010526315786
O 3.8425503912535097 -1.4032900730200868 -1.8750010526315797
H 4.74255039125351 -1.4032900730200868 -1.8750010526315797
H 3.5495390522420687 -0.5523233549807016 -1.8750010526315797
O -3.378521475231302 -1.3946058889993056 -2.625001052631578
H -2.478521475231302 -1.3946058889993056 -2.625001052631578
H -3.671532814242743 -0.5436391709599204 -2.625001052631578
O 1.261570773697138 2.6958921466079797 -3.375001052631579
H 2.161570773697138 2.6958921466079797 -3.375001052631579
H 0.9685594346856969 3.5468588646473647 -3.375001052631579
O 0.5382489112949961 -1.7160028348383898 -4.125001052631579
H 1.438248911294996 -1.7160028348383898 -4.125001052631579
H 0.24523757228355508 -0.8650361167990046 -4.125001052631579



