%chk=Fe_3_OLYP_3_6.chk
#p OLYP 6-31+G(2df,p) scf=(maxcycles=500,xqc,maxconventional=50) scrf=(cpcm,solvent=water)

Fe_3_OLYP_solvated_radius_4

3 6
Fe         0.00001       -0.00003       -0.00001
O         -0.12089       -1.26809        1.65893
H         -0.74426       -1.19177        2.40739
O          1.37469        1.20263        1.01933
H          1.80438        2.01241        0.68146
O          1.57252       -1.14842       -0.76390
H          1.49638       -1.91938       -1.35926
O          0.12003        1.26900       -1.65828
H         -0.43523        2.05359       -1.83350
O         -1.37367       -1.20327       -1.02006
H         -1.80144       -2.01442       -0.68356
O         -1.57269        1.14823        0.76402
H         -1.49659        1.91967        1.35875
H         -2.52614        1.01730        0.59542
H          1.71158        1.06395        1.92590
H          0.43506       -2.05177        1.83596
H         -1.71151       -1.06371       -1.92601
H          2.52590       -1.01822       -0.59444
H          0.74181        1.19251       -2.40805
O 1.7984336633475333 1.105263157897303e-05 4.125004736842105
H 2.6984336633475334 1.105263157897303e-05 4.125004736842105
H 1.5054223243360922 0.8509777706709641 4.125004736842105
O -2.194759668297922 -2.0105656954789812 3.3750047368421052
H -1.2947596682979219 -2.0105656954789812 3.3750047368421052
H -2.487771007309363 -1.159598977439596 3.3750047368421052
O 0.3195420518285536 3.641063902967989 2.625004736842105
H 1.2195420518285536 3.641063902967989 2.625004736842105
H 0.02653071281711261 4.492030621007374 2.625004736842105
O 2.488978482270986 -3.246424746043323 1.8750047368421052
H 3.388978482270986 -3.246424746043323 1.8750047368421052
H 2.195967143259545 -2.3954580280039375 1.8750047368421052
O -4.290504453483816 0.7589403197892207 1.1250047368421052
H -3.3905044534838162 0.7589403197892207 1.1250047368421052
H -4.583515792495257 1.6099070378286058 1.1250047368421052
O 3.783689024132417 2.406886303172537 0.37500473684210556
H 4.683689024132417 2.406886303172537 0.37500473684210556
H 3.4906776851209758 3.257853021211922 0.37500473684210556
O -1.1641591459110983 -4.330591195966837 -0.3749952631578945
H -0.26415914591109824 -4.330591195966837 -0.3749952631578945
H -1.4571704849225393 -3.4796244779274517 -0.3749952631578945
O -2.0082240426177242 3.866718163101989 -1.1249952631578943
H -1.1082240426177243 3.866718163101989 -1.1249952631578943
H -2.3012353816291653 4.717684881141374 -1.1249952631578943
O 3.842541443885089 -1.4032800730200867 -1.8749952631578954
H 4.742541443885089 -1.4032800730200867 -1.8749952631578954
H 3.549530104873648 -0.5523133549807016 -1.8749952631578954
O -3.378530422599723 -1.3945958889993055 -2.624995263157894
H -2.478530422599723 -1.3945958889993055 -2.624995263157894
H -3.671541761611164 -0.5436291709599204 -2.624995263157894
O 1.261561826328717 2.6959021466079798 -3.3749952631578948
H 2.161561826328717 2.6959021466079798 -3.3749952631578948
H 0.9685504873172759 3.546868864647365 -3.3749952631578948
O 0.538239963926575 -1.7159928348383897 -4.124995263157895
H 1.438239963926575 -1.7159928348383897 -4.124995263157895
H 0.24522862491513403 -0.8650261167990045 -4.124995263157895



