%chk=deferipronate_red_lowspin.chk
#p uB3LYP empiricaldispersion=gd3 opt=(cartesian,loose,maxcycles=2000,calcfc) scf=(maxcycles=500,xqc,maxconventional=50) 6-31+G(2df,p)  

deferipronate red low-spin state

-1 1
C           -1.00751771078327       -0.46518563031267       -0.30841313871420
C            0.18310942274416        0.27101838521206       -0.32984688081798
C            1.46152193050275       -0.46976631457985       -0.26091025386436
O            2.56344040432054        0.14516094927883       -0.28731938294436
C            1.36471914443622       -1.88285458564618       -0.16479100325199
C            0.15175953662840       -2.51688585779877       -0.14643294022811
N           -1.00714695217642       -1.84138932608723       -0.21602373644279
C           -2.26085558452839       -2.55781761574338       -0.19149589687420
O            0.19490269596595        1.54744615044635       -0.40892724371281
H            2.27433085500371       -2.46587950656555       -0.10841713347158
H            0.08049612521415       -3.59257077129574       -0.07533557899463
H           -2.83243636468227       -2.35928166068235       -1.09923320362074
H           -2.06316370572357       -3.62516131108595       -0.12460660384123
H           -2.85883571130516       -2.25359037307878        0.66886521487698
Fe           2.28966671361363        2.31220330964479       -0.41406369409623
C            4.17117555411385        2.88151351394749        3.42141523214798
C            3.74160288121379        2.75106685053355        2.09544947151033
C            4.73245649978442        2.96226976386306        1.01768178362203
O            4.40111026834842        2.83690344274333       -0.19376004897891
C            6.04618928435113        3.30683063930027        1.43083755164424
C            6.37259364809920        3.41948356278719        2.75541810371389
N            5.47334439823230        3.21371544567070        3.73174249660152
C            5.86991272835771        3.34086965788772        5.11455524177997
O            2.53424689345176        2.45477189232731        1.79529550602516
H            6.80306929691183        3.47831567480105        0.67705650883753
H            7.37380331347026        3.67893998449010        3.06767748268103
H            5.72805206876378        2.39639284774868        5.64201173779792
H            6.92038963189183        3.61793141118544        5.16262533686228
H            5.27741670907535        4.10922564418878        5.61305024844041
C            1.41941260558237        5.95128589478108       -2.55754418385273
C            1.71784296337917        4.68252626743879       -2.04636358224923
C            1.93827071404912        3.57877469582411       -3.00599859622762
O            2.22497890902113        2.41943123836698       -2.59750856750580
C            1.80837507884870        3.90645357490103       -4.38120301760145
C            1.50354416880050        5.17750021037384       -4.78771608939285
N            1.31461188721753        6.17980527405375       -3.91372108110733
C            0.98540908430883        7.50150190826834       -4.39407819450007
O            1.80651808808481        4.45601122652392       -0.79072668910961
H            1.95645227397618        3.12978649525244       -5.11966369369912
H            1.40446313020595        5.42443305972727       -5.83482767454127
H            1.73087493973796        8.22585220798123       -4.06294435641986
H            0.96003135641052        7.49221753884023       -5.48127493070995
H            0.00880530076160        7.81248122706910       -4.01943571394093
C            3.19525183380005        2.65759129207982        4.53821852309060
H            2.24476651915858        2.40852962534323        4.07013371748831
H            3.49128177281170        1.83105050761605        5.18738905342619
H            3.05658499648442        3.54858607635508        5.15371726771134
C           -2.32143105269751        0.25491523430063       -0.37986508516115
H           -2.93978325269940        0.07836892163565        0.50233948692118
H           -2.08745623423425        1.31647952541853       -0.43303292814255
H           -2.89701600454197       -0.01923266953669       -1.26645019802405
C            1.20337976059355        7.09552606266603       -1.61211778603941
H            0.20141426331648        7.52049869096146       -1.69602230730525
H            1.32655006191882        6.69252021290862       -0.60869662096393
H            1.93206523041571        7.89563349768247       -1.75752760883604


--link1--
%chk=deferipronate_red_lowspin.chk
#p ub3lyp geom=allcheck guess=read chkbasis empiricaldispersion=gd3 scf=(maxcycles=500,xqc,maxconventional=50) scrf=(cpcm,solvent=water)


