%chk=Fe_3_X3LYP_3_6.chk
#p X3LYP 6-31+G(2df,p) scf=(maxcycles=500,xqc,maxconventional=50) scrf=(cpcm,solvent=water)

Fe_3_X3LYP_solvated_radius_4

3 6
Fe         0.00004        0.00002       -0.00002
O         -1.43034        0.13332       -1.45435
H         -2.35402       -0.17521       -1.38752
O          0.56026       -1.82991       -0.71846
H          1.26901       -2.39913       -0.36276
O          1.34922        0.90113       -1.24357
H          1.51565        1.85997       -1.31972
O          1.43005       -0.13341        1.45463
H          1.31629       -0.51763        2.34475
O         -0.56009        1.83004        0.71826
H         -1.26846        2.39947        0.36219
O         -1.34918       -0.90121        1.24350
H         -1.51560       -1.86005        1.31956
H         -1.94660       -0.45287        1.87192
H          0.16898       -2.29704       -1.48105
H         -1.31682        0.51696       -2.34478
H         -0.16920        2.29697        1.48121
H          1.94668        0.45271       -1.87191
H          2.35363        0.17562        1.38853
O 1.7984105054527963 -1.3157894736837735e-05 4.1250215789473685
H 2.6984105054527965 -1.3157894736837735e-05 4.1250215789473685
H 1.5053991664413553 0.8509535601446483 4.1250215789473685
O -2.1947828261926587 -2.010589906005297 3.3750215789473685
H -1.2947828261926588 -2.010589906005297 3.3750215789473685
H -2.4877941652041 -1.1596231879659118 3.3750215789473685
O 0.3195188939338167 3.6410396924416735 2.625021578947368
H 1.2195188939338166 3.6410396924416735 2.625021578947368
H 0.02650755492237572 4.492006410481059 2.625021578947368
O 2.4889553243762492 -3.2464489565696386 1.8750215789473683
H 3.388955324376249 -3.2464489565696386 1.8750215789473683
H 2.195943985364808 -2.3954822385302537 1.8750215789473683
O -4.290527611378553 0.7589161092629049 1.1250215789473683
H -3.390527611378553 0.7589161092629049 1.1250215789473683
H -4.583538950389994 1.60988282730229 1.1250215789473683
O 3.78366586623768 2.406862092646221 0.37502157894736865
H 4.68366586623768 2.406862092646221 0.37502157894736865
H 3.490654527226239 3.2578288106856066 0.37502157894736865
O -1.1641823038058352 -4.330615406493152 -0.3749784210526314
H -0.2641823038058352 -4.330615406493152 -0.3749784210526314
H -1.4571936428172763 -3.479648688453767 -0.3749784210526314
O -2.008247200512461 3.866693952575673 -1.1249784210526312
H -1.1082472005124613 3.866693952575673 -1.1249784210526312
H -2.3012585395239022 4.717660670615058 -1.1249784210526312
O 3.842518285990352 -1.4033042835464027 -1.8749784210526323
H 4.742518285990352 -1.4033042835464027 -1.8749784210526323
H 3.549506946978911 -0.5523375655070175 -1.8749784210526323
O -3.3785535804944598 -1.3946200995256215 -2.6249784210526306
H -2.47855358049446 -1.3946200995256215 -2.6249784210526306
H -3.671564919505901 -0.5436533814862363 -2.6249784210526306
O 1.26153866843398 2.695877936081664 -3.3749784210526315
H 2.16153866843398 2.695877936081664 -3.3749784210526315
H 0.9685273294225389 3.546844654121049 -3.3749784210526315
O 0.5382168060318381 -1.7160170453647057 -4.1249784210526315
H 1.438216806031838 -1.7160170453647057 -4.1249784210526315
H 0.24520546702039708 -0.8650503273253205 -4.1249784210526315



