%chk=Fe_3_wB97X-D_3_6.chk
#p wB97XD 6-31+G(2df,p) scf=(maxcycles=500,xqc,maxconventional=50) scrf=(cpcm,solvent=water)

Fe_3_wB97X-D_solvated_radius_4

3 6
Fe         0.00001       -0.00001        0.00002
O         -1.40398        0.85567        1.19840
H         -2.34803        0.96333        0.99379
O          0.38722        1.81209       -0.84010
H          1.03631        1.99590       -1.53982
O          1.42074        0.35166        1.41322
H          1.67362       -0.24569        2.13706
O          1.40409       -0.85555       -1.19837
H          1.25493       -1.23362       -2.08127
O         -0.38717       -1.81226        0.83989
H         -1.03888       -1.99685        1.53676
O         -1.42089       -0.35162       -1.41306
H         -1.67440        0.24614       -2.13634
H         -1.97202       -1.14850       -1.49015
H         -0.04276        2.65454       -0.61622
H         -1.25494        1.23267        2.08177
H          0.04498       -2.65393        0.61851
H          1.97243        1.14822        1.48978
H          2.34840       -0.96195       -0.99421
O 1.798418926505428 1.263157894734015e-05 4.1249821052631575
H 2.698418926505428 1.263157894734015e-05 4.1249821052631575
H 1.505407587493987 0.8509793496183325 4.1249821052631575
O -2.194774405140027 -2.010564116531613 3.374982105263158
H -1.2947744051400272 -2.010564116531613 3.374982105263158
H -2.487785744151468 -1.1595973984922276 3.374982105263158
O 0.3195273149864483 3.6410654819153576 2.6249821052631575
H 1.2195273149864483 3.6410654819153576 2.6249821052631575
H 0.026515975975007322 4.492032199954743 2.6249821052631575
O 2.488963745428881 -3.2464231670959545 1.874982105263158
H 3.388963745428881 -3.2464231670959545 1.874982105263158
H 2.19595240641744 -2.395456449056569 1.874982105263158
O -4.290519190325921 0.7589418987365891 1.124982105263158
H -3.390519190325921 0.7589418987365891 1.124982105263158
H -4.583530529337362 1.6099086167759742 1.124982105263158
O 3.7836742872903115 2.4068878821199053 0.37498210526315817
H 4.683674287290311 2.4068878821199053 0.37498210526315817
H 3.4906629482788705 3.2578546001592903 0.37498210526315817
O -1.1641738827532035 -4.330589617019468 -0.3750178947368419
H -0.2641738827532035 -4.330589617019468 -0.3750178947368419
H -1.4571852217646446 -3.4796228989800833 -0.3750178947368419
O -2.0082387794598295 3.8667197420493573 -1.1250178947368417
H -1.1082387794598296 3.8667197420493573 -1.1250178947368417
H -2.3012501184712706 4.717686460088743 -1.1250178947368417
O 3.8425267070429836 -1.4032784940727185 -1.8750178947368428
H 4.742526707042984 -1.4032784940727185 -1.8750178947368428
H 3.5495153680315426 -0.5523117760333334 -1.8750178947368428
O -3.378545159441828 -1.3945943100519373 -2.625017894736841
H -2.478545159441828 -1.3945943100519373 -2.625017894736841
H -3.671556498453269 -0.5436275920125522 -2.625017894736841
O 1.2615470894866117 2.695903725555348 -3.375017894736842
H 2.1615470894866116 2.695903725555348 -3.375017894736842
H 0.9685357504751706 3.5468704435947336 -3.375017894736842
O 0.5382252270844697 -1.7159912558910215 -4.1250178947368425
H 1.4382252270844698 -1.7159912558910215 -4.1250178947368425
H 0.24521388807302874 -0.8650245378516364 -4.1250178947368425



