%chk=Fe_3_M06_3_6.chk
#p M06 6-31+G(2df,p) empiricaldispersion=gd3 scf=(maxcycles=500,xqc,maxconventional=50) scrf=(cpcm,solvent=water)

Fe_3_M06_solvated_radius_4

3 6
Fe        -0.00015       -0.00008        0.00001
O         -1.33519       -1.52782        0.06386
H         -2.30651       -1.45299        0.01375
O         -0.09262        0.16698        2.02082
H          0.39858        0.80306        2.57370
O          1.52546       -1.32731        0.17926
H          1.99954       -1.76931       -0.54980
O          1.33597        1.52704       -0.06407
H          1.12955        2.47638       -0.15185
O          0.09337       -0.16478       -2.02094
H         -0.39250       -0.80374       -2.57520
O         -1.52665        1.32602       -0.17892
H         -1.99641        1.77283        0.54990
H         -1.93076        1.63768       -1.01029
H         -0.63662       -0.37280        2.62436
H         -1.12771       -2.47704        0.15054
H          0.63288        0.38082       -2.62327
H          1.92388       -1.64523        1.01101
H          2.30716        1.45126       -0.01304
O 1.7985036633475333 5.105263157891954e-05 4.124991052631579
H 2.6985036633475334 5.105263157891954e-05 4.124991052631579
H 1.5054923243360923 0.8510177706709641 4.124991052631579
O -2.194689668297922 -2.010525695478981 3.374991052631579
H -1.2946896682979219 -2.010525695478981 3.374991052631579
H -2.487701007309363 -1.1595589774395958 3.374991052631579
O 0.31961205182855357 3.6411039029679895 2.6249910526315787
H 1.2196120518285536 3.6411039029679895 2.6249910526315787
H 0.02660071281711257 4.492070621007374 2.6249910526315787
O 2.489048482270986 -3.2463847460433226 1.874991052631579
H 3.389048482270986 -3.2463847460433226 1.874991052631579
H 2.196037143259545 -2.395418028003937 1.874991052631579
O -4.290434453483816 0.7589803197892206 1.124991052631579
H -3.3904344534838162 0.7589803197892206 1.124991052631579
H -4.583445792495257 1.6099470378286058 1.124991052631579
O 3.783759024132417 2.406926303172537 0.3749910526315793
H 4.683759024132417 2.406926303172537 0.3749910526315793
H 3.4907476851209758 3.257893021211922 0.3749910526315793
O -1.1640891459110982 -4.330551195966836 -0.3750089473684208
H -0.2640891459110982 -4.330551195966836 -0.3750089473684208
H -1.4571004849225393 -3.4795844779274514 -0.3750089473684208
O -2.0081540426177242 3.866758163101989 -1.1250089473684206
H -1.1081540426177243 3.866758163101989 -1.1250089473684206
H -2.3011653816291653 4.717724881141375 -1.1250089473684206
O 3.842611443885089 -1.403240073020087 -1.8750089473684217
H 4.742611443885089 -1.403240073020087 -1.8750089473684217
H 3.549600104873648 -0.5522733549807017 -1.8750089473684217
O -3.378460422599723 -1.3945558889993057 -2.62500894736842
H -2.478460422599723 -1.3945558889993057 -2.62500894736842
H -3.671471761611164 -0.5435891709599205 -2.62500894736842
O 1.261631826328717 2.69594214660798 -3.375008947368421
H 2.161631826328717 2.69594214660798 -3.375008947368421
H 0.9686204873172759 3.5469088646473654 -3.375008947368421
O 0.538309963926575 -1.71595283483839 -4.125008947368421
H 1.438309963926575 -1.71595283483839 -4.125008947368421
H 0.24529862491513404 -0.8649861167990047 -4.125008947368421



