%chk=Fe_3_OTPSS_3_6.chk
#p OTPSS 6-31+G(2df,p) scf=(maxcycles=500,xqc,maxconventional=50) scrf=(cpcm,solvent=water)

Fe_3_OTPSS_solvated_radius_4

3 6
Fe        -0.00002       -0.00005        0.00014
O         -1.32181        1.02480       -1.23727
H         -2.29112        0.93093       -1.25844
O          0.17776       -1.49873       -1.43179
H          0.72425       -2.30257       -1.36855
O          1.59686        1.01557       -0.86440
H          1.97661        1.86253       -0.56899
O          1.32320       -1.02311        1.23723
H          1.09477       -1.69173        1.90775
O         -0.18028        1.49890        1.43132
H         -0.72663        2.30269        1.36622
O         -1.59569       -1.01731        0.86458
H         -1.97421       -1.86472        0.56889
H         -2.10927       -0.73962        1.64429
H         -0.26985       -1.53331       -2.29624
H         -1.09172        1.69234       -1.90829
H          0.26454        1.53364        2.29720
H          2.11050        0.73652       -1.64358
H          2.29222       -0.92641        1.25890
O 1.7984426107159543 1.894736842108911e-05 4.124945789473684
H 2.6984426107159543 1.894736842108911e-05 4.124945789473684
H 1.5054312717045133 0.8509856654078063 4.124945789473684
O -2.1947507209295005 -2.010557800742139 3.374945789473684
H -1.2947507209295006 -2.010557800742139 3.374945789473684
H -2.4877620599409416 -1.159591082702754 3.374945789473684
O 0.31955099919697466 3.6410717977048312 2.6249457894736836
H 1.2195509991969746 3.6410717977048312 2.6249457894736836
H 0.026539660185533664 4.492038515744216 2.6249457894736836
O 2.4889874296394074 -3.246416851306481 1.8749457894736843
H 3.3889874296394074 -3.246416851306481 1.8749457894736843
H 2.1959760906279664 -2.3954501332670954 1.8749457894736843
O -4.290495506115395 0.7589482145260629 1.1249457894736843
H -3.390495506115395 0.7589482145260629 1.1249457894736843
H -4.583506845126836 1.609914932565448 1.1249457894736843
O 3.783697971500838 2.406894197909379 0.37494578947368457
H 4.683697971500838 2.406894197909379 0.37494578947368457
H 3.490686632489397 3.257860915948764 0.37494578947368457
O -1.1641501985426772 -4.330583301229995 -0.3750542105263155
H -0.2641501985426772 -4.330583301229995 -0.3750542105263155
H -1.4571615375541183 -3.4796165831906096 -0.3750542105263155
O -2.008215095249303 3.866726057838831 -1.1250542105263153
H -1.108215095249303 3.866726057838831 -1.1250542105263153
H -2.301226434260744 4.717692775878216 -1.1250542105263153
O 3.84255039125351 -1.4032721782832447 -1.8750542105263164
H 4.74255039125351 -1.4032721782832447 -1.8750542105263164
H 3.549539052242069 -0.5523054602438595 -1.8750542105263164
O -3.3785214752313015 -1.3945879942624635 -2.625054210526315
H -2.4785214752313016 -1.3945879942624635 -2.625054210526315
H -3.6715328142427426 -0.5436212762230783 -2.625054210526315
O 1.261570773697138 2.695910041344822 -3.375054210526316
H 2.161570773697138 2.695910041344822 -3.375054210526316
H 0.9685594346856969 3.546876759384207 -3.375054210526316
O 0.5382489112949961 -1.7159849401015477 -4.125054210526316
H 1.438248911294996 -1.7159849401015477 -4.125054210526316
H 0.24523757228355508 -0.8650182220621625 -4.125054210526316



