%chk=Fe_3_B3LYP_3_6.chk
#p B3LYP 6-31+G(2df,p) empiricaldispersion=gd3 scf=(maxcycles=500,xqc,maxconventional=50) scrf=(cpcm,solvent=water)

Fe_3_B3LYP_solvated_radius_4

3 6
Fe         0.00007        0.00004        0.00004
O         -1.60323       -0.34615       -1.21837
H         -2.21872       -1.10226       -1.16356
O          1.19507       -1.06353       -1.27095
H          2.15089       -1.23121       -1.16228
O          0.41978        1.71011       -1.03639
H          0.07910        2.60393       -0.84009
O          1.60311        0.34576        1.21872
H          1.89587       -0.21490        1.96268
O         -1.19604        1.06370        1.26989
H         -2.15138        1.23264        1.15901
O         -0.41882       -1.70995        1.03701
H         -0.07681       -2.60347        0.84163
H         -0.99786       -1.78483        1.81971
H          0.91585       -1.49817       -2.09960
H         -1.89585        0.21375       -1.96295
H         -0.91837        1.49713        2.09969
H          0.99826        1.78478       -1.81953
H          2.21829        1.10218        1.16487
O 1.7983952422949017 -2.3684210526319023e-05 4.124975263157895
H 2.6983952422949016 -2.3684210526319023e-05 4.124975263157895
H 1.5053839032834606 0.8509430338288588 4.124975263157895
O -2.194798089350553 -2.010600432321086 3.3749752631578946
H -1.2947980893505533 -2.010600432321086 3.3749752631578946
H -2.4878094283619943 -1.159633714281701 3.3749752631578946
O 0.31950363077592203 3.6410291661258842 2.624975263157894
H 1.2195036307759222 3.6410291661258842 2.624975263157894
H 0.026492291764481035 4.491995884165269 2.624975263157894
O 2.4889400612183548 -3.246459482885428 1.8749752631578946
H 3.3889400612183547 -3.246459482885428 1.8749752631578946
H 2.1959287222069137 -2.3954927648460425 1.8749752631578946
O -4.290542874536448 0.7589055829471154 1.1249752631578946
H -3.390542874536448 0.7589055829471154 1.1249752631578946
H -4.583554213547889 1.6098723009865006 1.1249752631578946
O 3.7836506030797854 2.406851566330432 0.374975263157895
H 4.683650603079785 2.406851566330432 0.374975263157895
H 3.4906392640683443 3.257818284369817 0.374975263157895
O -1.16419756696373 -4.330625932808942 -0.3750247368421051
H -0.26419756696372987 -4.330625932808942 -0.3750247368421051
H -1.457208905975171 -3.4796592147695566 -0.3750247368421051
O -2.0082624636703557 3.866683426259884 -1.125024736842105
H -1.1082624636703557 3.866683426259884 -1.125024736842105
H -2.3012738026817967 4.717650144299269 -1.125024736842105
O 3.8425030228324575 -1.4033148098621921 -1.875024736842106
H 4.742503022832458 -1.4033148098621921 -1.875024736842106
H 3.5494916838210164 -0.552348091822807 -1.875024736842106
O -3.378568843652354 -1.394630625841411 -2.6250247368421045
H -2.4785688436523543 -1.394630625841411 -2.6250247368421045
H -3.6715801826637953 -0.5436639078020258 -2.6250247368421045
O 1.2615234052760853 2.695867409765875 -3.3750247368421054
H 2.1615234052760854 2.695867409765875 -3.3750247368421054
H 0.9685120662646443 3.54683412780526 -3.3750247368421054
O 0.5382015428739434 -1.7160275716804951 -4.125024736842105
H 1.4382015428739434 -1.7160275716804951 -4.125024736842105
H 0.2451902038625024 -0.86506085364111 -4.125024736842105



