%chk=salicylate_solvated_3_optimized_Oxidized_Structure.chk
#p B3LYP empiricaldispersion=gd3 scrf=(cpcm,solvent=water) scf=(maxcycles=500,xqc,maxconventional=1000) 6-31+G(2df,p)

Oxidized_Structure

-3 2
C           -0.77701209491648       -3.10302177194999        1.50838709355852
C           -1.57355889802996       -2.25096817022288        2.26207969950635
C           -1.32580414206385       -0.90271276916006        2.26762850948484
C           -0.26132821590668       -0.28904739939579        1.53163267366432
C            0.53947474827179       -1.19271152822565        0.75365203339005
C            0.25525609312213       -2.54968602694328        0.77397700058429
C            1.70756916426458       -0.76771519307471       -0.10947035541521
O            2.25245453142324        0.34858275715799       -0.01083057527196
O            2.12765769199956       -1.63648093808527       -0.94842448136947
O           -0.14349220350813        0.98282515293558        1.59533802382337
H           -0.95325312138428       -4.16983716472001        1.49575994770068
H           -2.39203120024040       -2.65065901226534        2.84870389139631
H           -1.93835442377508       -0.23741804805889        2.86521832034097
H            0.89216488782054       -3.18721277256554        0.16704619702366
Fe           1.77536521078769        2.23406792837338        1.28363648774399
C            1.21418027398169        3.90114525705004        6.89465586178579
C            0.59165980243852        4.88041487709951        6.12484469709268
C            0.61584563758859        4.80726542902025        4.75919257120574
C            1.24962118905086        3.74283069630003        4.02510126961704
C            1.89006970846351        2.74929902403269        4.85407260180756
C            1.84921177646190        2.86703152648280        6.23835876470779
C            2.62079891356231        1.57632763903658        4.29834166124401
O            2.63691702245495        1.27960908513641        3.08849189119604
O            3.27114302960244        0.84134477178179        5.14458675789869
O            1.20265578346931        3.78410883616824        2.75986604467115
H            1.20073289543417        3.94625897234190        7.97441615355368
H            0.08279165492135        5.70305785381707        6.61265023808085
H            0.13253182776157        5.56938642883128        4.16034105089667
H            2.35195619968456        2.08956345930415        6.80558996245555
C            3.18576701560059        3.97512255530571       -4.11293366684537
C            1.81379314737431        3.75495453949725       -4.09545612832709
C            1.15986035913058        3.54840285275024       -2.90794303373983
C            1.82754875589888        3.52954307407474       -1.64289663459765
C            3.24355728755274        3.75661233252601       -1.68879225433836
C            3.86558611308414        3.97097182447271       -2.90959160647192
C            4.11672785820701        3.77602590861917       -0.46143597933899
O            3.77482715827965        3.30350626325659        0.63576911715115
O            5.26966590273123        4.32256850632321       -0.62176408593859
O            1.13416197535576        3.37698634337670       -0.58026664061589
H            3.71226399744878        4.13456635415820       -5.04313638234645
H            1.25702458861372        3.74221585079904       -5.02471378139128
H            0.09208086488562        3.36321624045851       -2.89513598081292
H            4.93739671823498        4.14298683617531       -2.89062119824438
O            7.39575686039319       -0.83150967314199        8.59271446769469
H            6.78811850391358       -0.67891777900382        7.86402563335912
H            8.03564643448358       -0.11226008962056        8.58691172320556
O           -0.85150820556064       -1.64801043367444        7.88890774844319
H           -0.91547880966897       -0.78021111403944        8.29947025990505
H           -0.36681312808366       -1.53655153258287        7.06730677540301
O            4.75813456831736        7.85897154598124        8.79401128134105
H            4.92405450655335        6.92776290421900        8.96707915253563
H            3.93507294572854        7.91235101439527        8.29922814821379
O            4.42979491043591       -0.75546391809809        3.45358134991171
H            3.95074655096573       -0.39722564871298        2.69165789537483
H            4.02445218463382       -0.20365570541138        4.20319574081358
O           -4.55535611126857        3.77903143270346        4.29879405704267
H           -4.09978739434015        3.87033424877912        3.45680632322685
H           -3.96545598893209        3.29437113018495        4.88213593499101
O            7.60207758888949        4.07154609032957        6.27477143286163
H            8.04627658051487        4.14995936337282        5.42470743922926
H            6.74355929254019        3.67536541429506        6.10643223894532
O            2.83177183350455       -5.02302684399098        5.75991184084229
H            3.41077749566817       -4.38982672930120        6.19589074544994
H            2.49868185777315       -4.59480300429452        4.96711453573933
O           -3.83020776907696        9.37799727938563        4.02265831539173
H           -3.54315913809573        8.47002094870885        3.88903008974750
H           -3.56329385555117        9.87488107068585        3.24244163396230
O            7.06932647162194       -0.20715551882811        3.16259153010535
H            7.01782193567139        0.60497787480930        2.65191210633242
H            6.13732764831300       -0.47645800984279        3.31426239621050
O           -6.93049307109671        0.71018755471810        0.97899594980576
H           -5.99706201960001        0.54157524035414        0.82328236694128
H           -7.09028854240118        0.57499154945659        1.91879062698072
O            4.66005283992380        8.09007612963047        3.32877496667843
H            4.12088725130754        7.54407692754589        2.75149123908995
H            5.18773960411447        7.48742404305637        3.86099420551634
O            5.86843494473322       -5.26826459399408        1.24890049724127
H            6.40958862214256       -4.85640343386701        1.92996408905577
H            5.10365796932001       -4.70216149188688        1.11970159696733
O           -1.35466868169553        2.66872623521153       -0.13649834779160
H           -0.46880192008222        3.03357371716017       -0.39719219996993
H           -1.06836948437752        2.03009866222998        0.54916034697133
O            7.50262417453637        4.71609614172775        0.77715226095579
H            8.04866439278701        5.01958808095835        0.04426861997189
H            6.62205401544628        4.52707919479731        0.36977104286096
O           -4.93653122875557       -4.16173778273820       -2.55793199785377
H           -4.49585878660980       -4.81454490304510       -3.11145144397799
H           -4.29630679739686       -3.86779181599970       -1.90432784756105
O           -0.33207701035015        8.30749200871254        0.04923388622211
H           -0.90279158538438        7.54358189257896        0.17528272700686
H            0.55714244818820        7.96533535521188       -0.07415167344941
O            7.28721040054776       -0.78048371103987       -2.01202743164956
H            6.96091888566708        0.11902797910931       -1.92889709643529
H            6.64806239025393       -1.34099370279195       -1.56368088229644
O           -3.03235129011280        2.55745585206268       -2.25560902954446
H           -2.39958160981945        2.48682165914625       -1.51046928748129
H           -3.63802356668335        3.25977565310465       -1.99649530740608
O            6.05818823713280        9.82890442636593       -1.48547370650435
H            5.89434756906569        8.89957366256730       -1.30599602317218
H            5.71456834020659       10.32713695052685       -0.73656956782406
O            1.60850548396196       -5.52494805815785       -4.80286674058639
H            1.58001505226288       -4.87429726380125       -4.09691809453446
H            1.75888878725147       -5.04318476929527       -5.62286236818289
O           -2.60319827934837        7.77401732261141       -4.72975559779132
H           -2.27938738898569        6.98359015833620       -4.28948361885043
H           -2.47431657498891        8.50751803748251       -4.12038387933718
O            9.94466788128975        2.93513125774175       -4.96502371365181
H           10.30374389264095        2.22498570113670       -4.42376600910667
H            9.07326105707738        3.14441805425165       -4.61830347113614
O           -1.29925901968860       -1.23790248227844       -5.21880493371251
H           -0.80302690767230       -0.90354672032076       -4.46798465431521
H           -2.23022884953952       -1.07837397453790       -5.03156091149750
O            2.12119870655483        9.34137592607577       -5.79457005240462
H            2.10347951371033        8.68107370704939       -5.09672420668610
H            1.64496416375746        8.97165973276181       -6.54502375284793
O            3.94745796698128       -0.89224251048327       -6.12717610509021
H            3.76006840217728       -0.78872529045955       -5.19100446272033
H            3.32760352235470       -0.33032118923723       -6.60301265306858
O            5.12081770803591        2.79483506143856       11.46908467028122
H            5.47349266985505        2.01610254697193       11.91211540864764
H            4.74376465044640        2.49789130596088       10.63657842067349
O           -4.58937587508047       -4.19440373522966       11.18985190445769
H           -4.26288220537910       -4.89508353508595       11.76330517757442
H           -3.90343429143883       -4.02419317836041       10.53744766166479
O            3.46155514476450       12.31373667640357       11.07568789847132
H            4.36091022197984       11.99464620337793       11.19907999699608
H            3.23327512841593       12.15898557848519       10.15404606469577
O            6.86579032892261       -2.61021970863380       10.77229969222005
H            6.92183588949691       -3.47439746108365       10.35243594139718
H            7.03644028485128       -1.96332081418068       10.07061918280712
O           -8.09833370049738        4.53002254123023        8.63186084007122
H           -8.68103702359752        3.82263737827416        8.92644534627081
H           -7.63808149157153        4.20539200608883        7.85189772996423
O           10.21703075554061        8.42807303888331        7.50418860825267
H           10.36979888180157        8.08767914044430        6.61754448301185
H            9.37306372991713        8.07493349183858        7.80152259231444
O            0.86349751326879       -6.18819313893843       10.47096891312654
H            0.93028016772226       -6.88201602488660        9.80736181279159
H            0.79251430495627       -5.35333324314778        9.99920017583191
O            0.68949149663100       10.94490303686462        6.29580221254655
H            0.59749477311894       10.12671563316355        5.79953827091466
H           -0.18007926253640       11.16154686025466        6.64771205072114
O            9.46701912927881       -1.54244411489669        3.82621020610276
H            9.88222215015516       -0.87244604236868        4.37850614748466
H            8.60461400715551       -1.17814915598231        3.57333707272678
O           -5.99617234852445       -1.75190228007596        5.87893251732873
H           -5.23851616041608       -1.25508491523864        6.20082076040721
H           -6.76805771343926       -1.42619353841370        6.35450170221064
O            6.23690774248666       12.17489765480084        5.93121792278276
H            5.36369969917762       11.78386659578230        6.02880419550072
H            6.83648847382858       11.46233062657264        5.68992085911026
O            5.38450109235077       -9.68279324736119        3.94793339138899
H            5.89997066296343       -9.62439818614829        3.13718800436419
H            4.72854759025555       -8.98018481397546        3.91458492035093
O           -8.78768726762463        6.62279079609306        3.63566070045846
H           -8.69822363881009        5.67717827130480        3.48302593554437
H           -7.98956092572363        6.91048913899827        4.08902513978018
O           12.37946314618639        5.09303638713068        3.56913321346153
H           13.18789279832250        4.68140115406856        3.24701813532996
H           11.75946343040019        5.10960614801671        2.83449283324041
O           -2.63037532266224       -6.29862423717224        6.45824469383461
H           -1.79678722032132       -5.96842951799324        6.11178015949295
H           -3.30329761043811       -5.64612386840913        6.24115973946237
O            2.07463955279725       12.68379294321552        1.26704796280955
H            1.13844514229419       12.72329218576989        1.04850078878688
H            2.19729830718778       11.92669015305161        1.84729011392033
O           11.28925111653034       -4.18945956082857       -0.20211626881071
H           11.79816986893963       -3.87602534056914        0.55230161055399
H           10.46015372803798       -3.70230524294466       -0.20250325446895
O           -8.35573659030375        2.75455437743371       -0.41272285796295
H           -7.82149257883270        2.09261377674420        0.05426146880587
H           -9.12257345760118        2.28186488191216       -0.75220419394278
O            9.73819965094676        9.82330618377652        2.22535015583842
H            9.86978805135262       10.20543634862636        1.35177481229420
H            9.21268779436828        9.02703987992497        2.10720594766797
O            3.35043289165502       -9.11358875835935       -1.15581169913081
H            4.30999734638070       -9.10279391791976       -1.23446160627673
H            3.06272250048282       -8.19822910921470       -1.10135457350883
O           -5.55506769184654        7.60208384338421       -0.49076319421453
H           -5.98013211391944        6.80905179115232       -0.15120145124117
H           -6.15413651203183        8.33677002865529       -0.32092601596808
O           11.84056294604465        1.31368542649652        0.03918048526494
H           12.30668449072766        0.83195969965468        0.73045557951258
H           10.90345196523441        1.26940023334811        0.24747546430939
O           -9.92399129761688       -2.84028995694623       -2.01101487112701
H           -9.65993836703484       -3.57698815025754       -2.57123296790523
H           -9.16856083077023       -2.62175722553561       -1.45694940091293
O            3.91129465054218       14.06216598798596       -3.88638514938260
H            4.22126048069114       13.20139866248233       -4.18448264188867
H            3.62115142344295       13.95496882542267       -2.97528471610463
O            7.02353314850651       -5.93160350420052       -3.89030057388923
H            7.75425760074605       -5.34117198328480       -3.68266945507079
H            6.22226603867662       -5.51561034668853       -3.56022425088193
O           -7.62360947471433        5.51972044874482       -5.04759656950350
H           -6.78893102157116        5.57538997308804       -4.57273929063522
H           -8.31462690195911        5.40330561956391       -4.38776288369129
O           10.96729550488098        8.05259688181515       -2.73007629456209
H           10.58034057394317        7.27969595343015       -3.15097625578384
H           10.78753526494418        8.80225246403502       -3.30648859315033
O           -3.35375047804487       -5.59871486975391       -7.67131881125038
H           -3.27524691013773       -5.75436326404790       -8.61788104161970
H           -2.51005872942276       -5.24672547123683       -7.37285543491092
O           -1.49261669533120       12.97955108429150       -5.31043199642691
H           -1.38582096401370       12.57416389128608       -6.17668626211159
H           -0.60886457990534       13.13279072553403       -4.96203885873195
O            9.22986383093633       -2.00402860354399       -7.12095320846288
H           10.13617493082801       -1.83233002367049       -6.84633569543213
H            8.65558623079229       -1.68179956518328       -6.42026207290788
O           -6.95836475424962        0.29009918487214       -5.26264290663138
H           -6.86963674677098       -0.61375342699213       -4.94576098865772
H           -6.72661913235695        0.86970646867033       -4.53114001762067
O            7.24272127315883        7.61596119207851       -6.45413737586610
H            6.63074915672796        7.73888645481474       -5.72281401294496
H            6.80102538375739        7.93767377124945       -7.24686236182486
O            5.10924860433918       -4.95228513633659       -9.10150238959154
H            5.55205672330444       -4.69043164084651       -8.28903955985365
H            4.50999327931747       -4.23683488950811       -9.33552438305107
O           -3.29191281369941        3.18973014291103       -7.81345194417958
H           -2.97132562777044        3.12294960280946       -6.90960523898465
H           -4.24359714893070        3.32928083246727       -7.76460122457870
O            6.70910031042003        2.71947826323283       -9.22781487914343
H            6.85308961283613        1.99109926817130       -8.61595917990169
H            7.04430966275086        3.51465304472511       -8.80254751444498
O            0.39287019262832       -2.13294571047335      -10.41128693997801
H            0.06057155213837       -1.92850759582867       -9.53229492071960
H           -0.14503995002782       -2.85369748543015      -10.75513885382248
O            4.91763901254134        7.13621522277282       14.29652101350652
H            5.68722268350154        6.83067106571643       13.80633186322410
H            4.16478773605730        6.62858726940544       13.97844929278198
O           -1.35320608794240       -0.98956268812873       13.80736947281643
H           -1.17522692754585       -1.93212227547290       13.72486225223866
H           -1.69777638037064       -0.69209060954788       12.95976341434428
O            0.95829397007015       11.01860854476168       15.43045069232378
H            1.53228702018795       10.33753753918520       15.06652978678452
H            1.35703517247283       11.86624189324966       15.20872629151487
O            5.27689590792841       -6.50820276078460       14.18191068310542
H            5.57306345061682       -6.84037931081103       13.32851486437977
H            5.09607229651697       -5.56982141783444       14.06895508787534
O           -3.59955355961899        2.58993173267412       10.04466499201396
H           -3.20865602899268        3.24573845912815        9.46006546013312
H           -4.11532144639166        3.06932941776394       10.70186781608432
O           13.06560208269235        9.97016787835356       12.13511408290936
H           12.76593864111192        9.55618257217905       11.31975745577213
H           12.44971372029322       10.68428859853252       12.32843372946964
O           -0.15930057719316       -6.57237360304717       13.12125572292127
H            0.60712233639445       -6.87455871124715       13.61830137413557
H            0.15290524154814       -6.42775297609488       12.21400512088718
O           -1.78016609260266       12.39724327653373       10.94468758996979
H           -1.34827621808987       11.60907433531682       11.28846169108958
H           -1.18879246569682       13.13702394853908       11.11732443595878
O           11.98510168382342       -3.14150513152838        8.60493989308828
H           11.36357615122725       -3.46953457242779        7.94767391482985
H           11.51149401536195       -3.09526350254973        9.44141972182475
O           -8.27634542842427       -0.53133180021755       10.73526362543417
H           -8.35274272045244       -1.48373014142904       10.85004243365457
H           -7.34673985285266       -0.31027544824535       10.84953018257899
O            8.92001340423918       13.11722838284255       10.29300659291046
H            8.85723498492837       12.27986010804090        9.82319364959345
H            8.89112496866708       13.81210146203102        9.62765417005309
O            6.50516550847789       -7.89804447026539        8.80661309842873
H            7.17705878429289       -8.12887678287585        8.15746770472217
H            5.66957338739435       -7.83488513055358        8.33400601895498
O          -12.07822526241649        8.37522587143667        7.30435187963519
H          -11.36306175243001        7.76988444178936        7.52442749079770
H          -11.91273220283449        8.68964550014047        6.40983763063347
O           12.75518224092027        3.88681561331962        8.51808667221929
H           13.18470709336066        4.69798120903534        8.22668578790844
H           11.84820763100798        3.92251776321282        8.19984431238218
O           -6.12348270119546       -8.97915117020683        9.31309033211429
H           -5.18955926959300       -9.15876689857589        9.16618343448232
H           -6.28580551994211       -8.08128557702667        9.00720989399159
O            2.50189318125791       16.12609723288486        5.04944456820108
H            1.94232661858930       15.36214459192693        5.22011667654267
H            3.34835404319624       15.78898628482261        4.73946803142445
O           10.27040623195729       -7.00436634935650        4.78027696917004
H           10.18981148460865       -6.15901490258051        4.32842813612385
H           10.02858068167325       -7.68736795823658        4.14666440452734
O          -10.40903374005999        1.40805544446332        5.21417014639724
H          -10.92251575488767        0.68339604087836        5.58494067720697
H          -10.89933396185516        1.74036225135073        4.45558927742572
O           11.37825440580216       13.59772735141094        5.51738050304241
H           11.32864834057046       12.66480291189757        5.74825851067887
H           10.86715369472457       13.71374697324561        4.71032018793231
O            2.83758512024693      -13.96979277708997        1.40294489142411
H            3.35420378491808      -13.49070659520814        2.05862619854835
H            2.57070425250298      -13.33041091685598        0.73515314051501
O           -8.50245744959123       11.79644975542648        2.09260900648212
H           -8.01781871954425       11.34142509572678        2.78838017381864
H           -7.85344250885748       12.26393447770936        1.55740330750040
O           14.52245083407237       -0.02361741720721        4.81099036294575
H           14.24999114977516        0.65616685014267        5.43550216692142
H           14.42488266778655       -0.86971158000783        5.25916557960948
O          -13.24791357925255       -1.74247960665087        2.21772702414602
H          -12.33684059991311       -1.93674025241038        1.97681211637243
H          -13.72845751860043       -1.60048326113610        1.39598954100288
O            7.14840781158506       14.60119379951884        1.00545698546468
H            7.19198597939086       14.01583230511718        1.76767904537386
H            6.21712415364267       14.77635207863149        0.83844620696432
O            9.01802545523876       -9.31041301310739       -0.42629582101388
H            9.05743809889175       -8.35160800705766       -0.35802349525767
H            8.96462241182032       -9.52165851132503       -1.36376912870732
O          -10.87063858269548        7.72419419375921       -1.02502559206870
H          -10.64793674684126        6.87857448437506       -0.62351896819847
H          -10.82232320721117        8.38681695262329       -0.32842625533570
O           14.90032149399020        8.71961035637836        1.25412977854855
H           14.52376214068744        9.04235825512717        2.07891438779786
H           14.16333986917123        8.52572484449024        0.66672778477127
O           -2.03186978789132       -8.91516341145686       -3.31234096485525
H           -1.14811167121847       -8.96323275345002       -2.93673646761205
H           -1.93427373503479       -8.60281773067879       -4.21785364265123
O           -3.73642090759828       12.60354738454038       -0.65315071506006
H           -3.16921739489721       11.88792256717516       -0.95550203726894
H           -4.21364063372715       12.92543486628961       -1.42479957876515
O           13.88281075052615       -1.01900324321730       -4.15526937281664
H           14.24878535529784       -0.18744783552323       -3.83753656486984
H           13.51001584516750       -1.47256097904665       -3.39290021852882
O          -11.82175837219164       -0.87922420049522       -2.88491204105328
H          -11.24542992695821       -1.57121153023460       -2.52308173834206
H          -11.41977880757047       -0.60814706001628       -3.71610670344653
O            9.16291621673363       13.85338627431315       -3.90311228691978
H            8.82191672375898       13.01346419625110       -3.58113746359888
H            8.66649494269311       14.54539533036472       -3.45448608412816
O            4.65736233864714       -9.74287477138120       -6.65822129482252
H            5.38173276795475       -9.19338144073764       -6.97436628307165
H            4.25225841749631       -9.27547761758409       -5.92127526261553
O           -7.47634530405601       10.80646143063845       -4.24650377384807
H           -6.74651837321905       10.25622082969407       -4.54741316306403
H           -8.21195838542431       10.21623011668760       -4.05414241349031
O           14.99861633769192        4.61387175704109       -3.02874907194814
H           15.05896050834258        5.56067897261306       -2.86600710924548
H           14.14323246084166        4.32537028168574       -2.69624791962682
O           -8.39563939444738       -4.66197828536389       -7.02710308208241
H           -7.74283128945092       -5.13623718183796       -6.50301925607524
H           -7.91498444168904       -4.20967361812902       -7.72776694889362
O            2.14837562505876       13.66454961507292       -9.24323978943816
H            2.31929985246420       12.71777502154158       -9.22075990486779
H            2.48650351082123       14.03160576484757       -8.42009704717165
O           10.09573316742300       -6.97786268371497       -8.57263886104509
H            9.75558991617947       -6.73009123672378       -7.70739156856502
H            9.79282644132727       -6.30816430930565       -9.19404479305265
O           -8.79156907786308        2.42602210106702       -9.67947191974362
H           -8.45861315001118        1.54314680983774       -9.48967095076500
H           -8.76495635777914        2.91877277688537       -8.85325305753748
O           12.64495061209126        6.54571422242743       -7.67546124843533
H           12.95570196284667        5.80213909553692       -7.14922975032027
H           11.68396443808403        6.54032272521299       -7.62816114624482
O            0.76711117859784       -7.45734576106818      -10.13181331318511
H            1.30681493412812       -7.77487503430291       -9.40126026495826
H            1.36141380268185       -7.30359006779471      -10.87317305917945
O           -1.82624816376150        8.32531497825693       -9.73812122066468
H           -1.93111998873464        7.42720488687901       -9.40939231226548
H           -2.44751471548733        8.87592931565458       -9.25121894555467
O            7.58969731408589       -1.67421590981819      -12.46295485396239
H            7.89850856154920       -1.97106489256804      -11.60120295257260
H            7.28580214393057       -0.76770739169831      -12.35493506843173
O           -4.67098418233271       -1.38409307945095      -10.00551032004485
H           -4.36755287479927       -0.59988463014103      -10.47360693933476
H           -4.56635572815991       -1.20714254135991       -9.06549786968367
O            3.55360197694582        7.21978755039006      -10.56207642225743
H            3.80189368718932        6.29668411688311      -10.67156806279899
H            2.64708111634965        7.30567810109715      -10.87426515674921
O            3.55804284473489       -4.74553829573926      -14.23643374566046
H            4.46262188478228       -4.87992523723945      -13.93631061301400
H            3.23617551866551       -3.94937006952164      -13.80215490833992
O            0.49079961692697        3.22958724537906      -11.96891804301353
H            0.81703590695566        2.33379334161271      -11.83883896843059
H           -0.20533048521743        3.37297545670437      -11.32036457184453


