%chk=salicylate_solvated_3_Reduced_Structure.chk
#p B3LYP empiricaldispersion=gd3 scrf=(cpcm,solvent=water) scf=(maxcycles=500,xqc,maxconventional=1000) 6-31+G(2df,p)

Reduced_Structure

-4 1
C           -1.40721982939137       -2.95797373572356        1.21995607913344
C           -2.15763963894949       -2.06253559895220        1.97331562966789
C           -1.76685086722845       -0.75469699173657        2.07892013918788
C           -0.58538379469769       -0.21555620650077        1.45655204731244
C            0.16625340367548       -1.17026865347942        0.67677606544360
C           -0.26990274419118       -2.48377349076464        0.59276928445985
C            1.44190680603944       -0.84376341184962       -0.06112424259161
O            2.06890199898719        0.22167772738776        0.10338943548925
O            1.87466099857653       -1.74017237798025       -0.86908937222824
O           -0.34267144962187        1.01727872224272        1.62337065826220
H           -1.69626366196820       -3.99640636554674        1.13045887609230
H           -3.05325199417825       -2.40270125667587        2.48098505659240
H           -2.34672539991458       -0.05594628192242        2.67208052040533
H            0.33844831774020       -3.15710116929348       -0.00647149701072
Fe           1.56379321343939        2.14994544144980        1.30493289295952
C            1.26263334984872        4.27238943825295        6.82521024209074
C            0.64441572160749        5.21114831449681        6.00462120376817
C            0.58829379344594        5.01633598306461        4.65154501442252
C            1.14011224551996        3.86602888591805        3.98192413291248
C            1.78325331277069        2.91849100904112        4.86250361752788
C            1.81788905641128        3.15705311168767        6.23066948513784
C            2.44134276186669        1.66642598516261        4.38065685666162
O            2.39797785114431        1.27126560930987        3.20101649081909
O            3.07887432186562        0.97173134215401        5.26796834978151
O            1.02287645132649        3.80271564450601        2.72232466729240
H            1.31225237949869        4.41024483670420        7.89644440738014
H            0.20199010467241        6.09855475166729        6.44198501129903
H            0.10954391519729        5.74965638802341        4.01318450026772
H            2.31858668514902        2.41048243372393        6.84103354846420
C            3.03149004698420        3.86288722020205       -4.07636393234479
C            1.66073306881249        3.62787535191945       -4.08370542871238
C            0.99722158716556        3.38398722333563       -2.91166516107326
C            1.63884408262527        3.32626220989828       -1.62460102205069
C            3.05872711899225        3.58514143752422       -1.65139637802935
C            3.68957986099179        3.83628985427190       -2.86121042082606
C            3.92808264247272        3.59446468672922       -0.42516783650520
O            3.57071965825886        3.16012118192664        0.68355888998640
O            5.10410388935554        4.09715936463727       -0.58725340682615
O            0.91295187796030        3.11375614178907       -0.60783621552910
H            3.57253664056442        4.04730961683286       -4.99415939275581
H            1.11652923216520        3.63213178526355       -5.02165546834914
H           -0.06919088064774        3.18669977550798       -2.91597025083856
H            4.75998092571475        4.01838875221372       -2.82380845217845
O            7.27470865304729       -0.42577897822183        8.63568384402160
H            6.55353795742183       -0.25068753402493        8.02513738465965
H            8.03281704246163        0.08598562679087        8.33454241002722
O           -0.93836856255406       -1.36493998565497        7.85737281624254
H           -0.11457643553564       -1.17786121127056        8.31797998402313
H           -0.80473050112756       -1.11937723056313        6.93826510724500
O            4.48352121877773        8.60931077122215        8.18505341616027
H            4.65143349779185        7.71221059291688        7.88317867766274
H            3.71882566876974        8.92972250052010        7.69641462798103
O            4.06486581439791       -0.91501031272265        3.70659488734923
H            3.65836139722389       -0.56059905990256        2.90409928672593
H            3.73912126800583       -0.25620411994613        4.39068805299633
O           -4.36200199069658        2.97530638065580        6.33033240665731
H           -3.49365810503813        2.60599357525452        6.14961293790469
H           -4.26663953380053        3.93310241324418        6.31755620556982
O            7.49931021617436        4.31014002335636        6.20751014338487
H            8.10093843717535        4.45070396933433        5.46911594614532
H            6.70422610446426        3.90716148778272        5.84919582673463
O            1.83605984535828       -5.05599325511657        5.72813121975615
H            2.44263089682949       -4.45713930463495        6.17460766097184
H            1.52568473272379       -4.60004194478632        4.94127508403224
O           -3.08870931633217       10.35817468973042        2.33269689364214
H           -2.86262322738273        9.42515775464936        2.27406640573970
H           -2.38543231947193       10.84592696586234        1.89212477212183
O            9.22678370359149       -0.29473392113324        3.70453659492813
H            8.90490529652856        0.49817237604794        3.26548278375369
H            8.47447061256374       -0.88543736966347        3.79812473083405
O           -7.41132703513748        0.86724107693007        2.02402209947402
H           -6.93965163381317        0.03616723085576        1.91206356699498
H           -6.93078502895804        1.37749100439655        2.68248335297996
O            4.97716324832996        8.18042105592497        3.16181255385802
H            4.44484999923305        7.43456841034092        2.87319142491323
H            5.87521378338566        7.85300441513740        3.27336645138537
O            5.03550055222935       -5.64227515577691        1.60777030722541
H            5.40757281915734       -5.16343705730504        2.35493957683394
H            4.30968808453734       -5.11021645344500        1.27103169572200
O           -3.56943938562639        4.93771613420168        0.96305027550082
H           -2.74240479065291        4.85180857071286        0.48009010048459
H           -3.49979872445049        4.33390784131123        1.70833334665206
O            7.33765805916948        4.15158170205101        0.84024344586564
H            7.94431529511498        3.93574225192292        0.12433938880676
H            6.43915675854201        4.11457512580738        0.42160914219542
O           -3.83785655798996       -4.39621451502759       -3.40611254760657
H           -2.93774741145840       -4.70148009694412       -3.25933873316207
H           -3.88878272535210       -3.50200600301326       -3.05578572690569
O            0.87490368052358        8.54258317812068       -0.64866328516324
H            0.83674697788391        7.83049677984199       -0.00386787063478
H            1.42320381876436        8.22888822508100       -1.37355343863698
O            7.22154656072987       -1.19213772135057       -0.89532572589289
H            6.64952188782912       -0.47332026793752       -0.61411331627455
H            6.64872831385930       -1.94235048813740       -1.08120415197355
O           -4.78536027763257        1.09680180278712       -2.45079794815290
H           -3.98790771992121        1.05079255022205       -1.91686780523609
H           -5.31080080306055        1.82862987698363       -2.11007951983566
O            6.79598175417993        8.77207030220860       -1.98631004250329
H            7.24776429838520        7.94523501854545       -2.17914241140745
H            6.07936028876574        8.55992013831592       -1.38158178795189
O            1.54628029819769       -5.64508245574834       -4.74205094393174
H            1.72603932221362       -5.00210991867758       -4.05098792023780
H            1.59290812134286       -5.17504786072735       -5.58147206926118
O           -2.91015500866628        7.65862239082483       -4.17929539685152
H           -2.46228484549803        6.99439372333885       -3.64815603808063
H           -2.65380614184625        8.51939506159049       -3.83263423707246
O            9.19220352783006        1.80184045640392       -4.71392615245904
H            9.71301183770830        1.45756101389646       -3.98150077420146
H            8.26828085239214        1.64168643960844       -4.50270538237740
O           -0.84610913257877       -0.95662949773778       -5.72446569192874
H           -0.41710719211163       -0.96846335046022       -4.86509961687027
H           -1.59294619307790       -0.35291050664333       -5.65759831629112
O            1.38882970328046        8.68854506749964       -6.88671817029570
H            1.45267022983641        8.16606562518389       -6.08210795138950
H            0.63727200089323        8.34977983221990       -7.38403428182589
O            4.49781732348182       -1.07936097828171       -5.76413783719406
H            4.20430809303049       -0.95884311072115       -4.85741977567175
H            4.00323932938621       -0.45539761052037       -6.30536559909970
O            5.42608220530180        2.47121390507797       12.86404199077233
H            5.73366095389961        1.56888469769375       12.99928391302617
H            5.29531581996365        2.58303640211051       11.91790702308850
O           -3.09699786763532       -2.30071590950196       12.94728920823782
H           -2.76779464870582       -3.20232728029078       12.87313185228697
H           -2.93143156332290       -1.87234297580895       12.10204922272673
O            1.76684707150201       11.52346363388880       11.93769596589615
H            2.42598966613200       10.83601492070630       11.80045973995729
H            1.26848295445617       11.60027191280698       11.11793711779178
O            7.30276670793978       -2.34807207432547       10.77464065385079
H            7.60341057506374       -3.12979197352546       10.30052818483298
H            7.24590803430908       -1.64347078968864       10.11194339705754
O           -8.50915716250939        4.37107039886272        9.29877305589476
H           -7.75412947755382        3.79068208416157        9.43536586497518
H           -8.43335414510586        4.72347220476296        8.40633817611095
O           10.01168213492564        7.89199310104926        9.41788029817526
H           10.04658091231630        6.98282031926966        9.10519189509893
H            9.10349711738183        8.19055935740590        9.30769181036693
O           -0.81262771780611       -6.47625171839455       10.02106465906529
H           -0.18252749083561       -7.03262939844059        9.55271852298290
H           -1.11302984122525       -5.81068220154286        9.39472140184626
O           -0.39746186100501       11.41706004945483        6.73830982591700
H           -0.33810623224444       10.64770719786763        6.16494405321900
H           -0.94416588701302       12.06454131023518        6.28133141269592
O           11.73482371465094       -0.63070382773474        5.06881637653760
H           12.04464249733756        0.27317062707005        5.18476813408655
H           10.87990130295336       -0.56503109879357        4.61703377250360
O           -6.33773410714721       -1.88652055915919        6.27432832997048
H           -5.41171213031615       -1.65528021618092        6.39148023609437
H           -6.85554274027386       -1.13523896277538        6.58210654918157
O            6.46987056228756       12.85524601099808        5.90412079410979
H            6.52908151326614       12.61714789972860        6.83488931629115
H            6.38785364118715       12.03374580429558        5.41035943371376
O            5.05661579741243       -9.59535786824190        5.36257225291968
H            5.55414922252129       -9.25811776487186        4.61107849115660
H            4.24863954294641       -9.07614482627533        5.41988855672345
O           -7.47021372327928        6.63314638375332        4.13234203273708
H           -7.68802388586213        5.91212581605044        3.53327407339893
H           -6.78300787601309        7.15490399270049        3.70646182530536
O           12.46303336096209        4.56035885866088        3.31335999282366
H           12.77281349179159        5.46557271128111        3.42028981981934
H           11.77706911097496        4.57699790340644        2.63946635339870
O           -3.56304677275636       -6.75786234685013        5.36577881926851
H           -2.78051029480820       -6.29634929661065        5.05032121339952
H           -4.25438400079838       -6.09762052370287        5.47867217853469
O            1.92189253570219       12.79216234878925        2.55888501939843
H            2.23992163188923       11.89187875906567        2.44258804656498
H            2.45117725002880       13.18983288639139        3.25800125507223
O           10.66326792688036       -4.97729922298939        1.49520722368484
H           11.09090180176037       -4.47436676573626        2.19592101752588
H            9.93453543690759       -4.44116526391680        1.16907576442277
O          -10.14117506790512        1.30075338486898        1.20160587633688
H           -9.24110009689152        1.17841354128374        1.53991974183254
H          -10.12860298132360        0.98031913778179        0.29411199820183
O           11.46791676869029        9.00681923654525        0.70247089956856
H           11.57202046023617        8.77181515907090       -0.22510040824835
H           10.53442008039221        9.19249676394696        0.84182061036124
O            2.68172295149535       -9.92277445834766       -1.18893626189286
H            3.09914879289224       -9.37524492457982       -0.51719395472450
H            2.44653013352748       -9.34243064043148       -1.91939173352019
O           -6.86311432223496        8.97136748107730       -1.10050840016619
H           -6.25621606587874        8.29068452475271       -0.79417684474733
H           -6.42459930462931        9.81776659802950       -0.96932403578765
O           12.58598600905706        0.19727779864456       -0.35712797864832
H           12.79063099944495        0.53983942126804        0.51895028170030
H           11.82751027902632       -0.38622343856108       -0.25921144853700
O           -9.02082009934284       -2.56420245073057       -3.10410945099767
H           -8.54639449694451       -3.40018790082889       -3.14997685988516
H           -8.36266601555637       -1.87503525440820       -2.97197100594959
O            3.76984077382993       13.34735228027224       -2.77603159017871
H            4.44320029410048       12.70090513827370       -3.00924824259364
H            3.38309638868372       13.06154441323404       -1.94248738607936
O            7.36440085890784       -7.27415957058596       -2.82695137183879
H            7.78555197682693       -7.14580888792071       -1.97113840406660
H            6.46323341554924       -6.94740538150803       -2.74976784035568
O           -7.93548837802736        5.15580926634902       -4.58691789639857
H           -7.04013410593378        5.48768853737449       -4.46924249023392
H           -8.48705123598835        5.60311573508924       -3.93720791357434
O           11.28113927740477        7.01707052388900       -4.60294284690125
H           11.08178070070190        6.07954816902583       -4.52136176897128
H           10.69287097919537        7.37105144832570       -5.27759559196941
O           -2.58970420236679       -8.35070222306622       -7.21473652556674
H           -1.73636835570203       -8.35416086505574       -6.77002864681336
H           -3.06192807464493       -7.57065201151339       -6.90716995909460
O           -1.41531681167192       13.02509649830386       -4.88171326294042
H           -1.04720963065189       12.52135456517827       -5.61455310658437
H           -0.72014745625099       13.10727709210997       -4.22147254664310
O            9.61290517004805       -2.37562453831964       -7.69136315987203
H           10.21260152765289       -2.21581046316707       -6.95588224382448
H            8.72167246663599       -2.21706775358744       -7.36581458112444
O           -6.33391836315292        0.48392514236460       -7.37569804103300
H           -6.11765219075970       -0.23697428603899       -6.77642770536104
H           -6.64162761980561        1.21706443935290       -6.83318555034573
O            6.54971221709964        7.64210066087987       -7.49944337999839
H            6.08878859804888        7.58463559174548       -6.65738187827221
H            5.90226642203477        7.92060726978960       -8.15522767088562
O            4.31027220326863       -4.67562389309944       -9.54228752461690
H            4.96328417030087       -4.68194858811322       -8.83565032964144
H            4.00847023361369       -3.76681147719995       -9.63802302485697
O           -3.24842911071374        6.23878521707533       -9.06755484957438
H           -3.11159946617284        5.48439499352245       -8.48664819270810
H           -3.90808104276349        6.79986981422557       -8.64691587891399
O            8.45049512457732        2.85601036798112       -9.81132131856887
H            8.74715129204701        2.02097704170576       -9.43549304905045
H            8.19577055196601        3.42054039508196       -9.07510026422527
O            0.68925734755263       -0.47080338523016      -10.64225768296547
H            0.70205541276897        0.20116329863903       -9.95425403595786
H            0.15458295151892       -1.19979121227466      -10.31181582808555
O 5.176018900252938 2.154063074401035 16.545626908907014
H 6.076018900252938 2.154063074401035 16.545626908907014
H 4.883007561241497 3.0050297924404203 16.545626908907014
O -2.235064887534234 -1.6354937865361872 15.866551526673558
H -1.3350648875342341 -1.6354937865361872 15.866551526673558
H -2.528076226545675 -0.784527068496802 15.866551526673558
O 2.527827587160671 9.289193383046467 15.187476144440101
H 3.427827587160671 9.289193383046467 15.187476144440101
H 2.23481624814923 10.140160101085852 15.187476144440101
O 6.999797405773587 -4.49558570985327 14.508400762206644
H 7.899797405773588 -4.49558570985327 14.508400762206644
H 6.706786066762146 -3.6446189918138847 14.508400762206644
O -7.345954597930061 3.789831638963986 13.82932537997319
H -6.4459545979300605 3.789831638963986 13.82932537997319
H -7.638965936941502 4.640798357003371 13.82932537997319
O 10.558087305703221 7.66058882605639 13.150249997739733
H 11.458087305703222 7.66058882605639 13.150249997739733
H 10.26507596669178 8.511555544095776 13.150249997739733
O -0.9586803497529486 -8.486171126898189 12.471174615506277
H -0.05868034975294856 -8.486171126898189 12.471174615506277
H -1.2516916887643896 -7.635204408858804 12.471174615506277
O -3.4855316933520886 12.526726626057025 11.792099233272822
H -2.5855316933520887 12.526726626057025 11.792099233272822
H -3.7785430323635296 13.37769334409641 11.792099233272822
O 13.440737212045331 -2.0599981858641754 11.113023851039367
H 14.340737212045331 -2.0599981858641754 11.113023851039367
H 13.14772587303389 -1.2090314678247902 11.113023851039367
O -9.945947586660477 -2.7364471978974856 10.43394846880591
H -9.045947586660477 -2.7364471978974856 10.43394846880591
H -10.238958925671918 -1.8854804798581004 10.43394846880591
O 7.536288680639747 14.194988595153688 9.754873086572456
H 8.436288680639747 14.194988595153688 9.754873086572456
H 7.243277341628306 15.045955313193074 9.754873086572456
O 6.008065631189201 -10.937881713165181 9.075797704339
H 6.908065631189201 -10.937881713165181 9.075797704339
H 5.71505429217776 -10.086914995125795 9.075797704339
O -10.299623918527487 9.22494258707892 8.396722322105544
H -9.399623918527487 9.22494258707892 8.396722322105544
H -10.592635257538928 10.075909305118305 8.396722322105544
O 16.006135810481194 5.254897794376642 7.717646939872084
H 16.906135810481192 5.254897794376642 7.717646939872084
H 15.713124471469753 6.105864512416027 7.717646939872084
O -6.576673372423232 -9.905459543043287 7.038571557638632
H -5.676673372423232 -9.905459543043287 7.038571557638632
H -6.869684711434673 -9.054492825003901 7.038571557638632
O -0.02668073541684879 17.034750133226645 6.359496175405176
H 0.8733192645831512 17.034750133226645 6.359496175405176
H -0.3196920744282898 17.88571685126603 6.359496175405176
O 13.55018954554405 -7.6633501968123365 5.68042079317172
H 14.45018954554405 -7.6633501968123365 5.68042079317172
H 13.25717820653261 -6.812383478772952 5.68042079317172
O -13.514551967895702 1.51655530265051 5.001345410938265
H -12.614551967895702 1.51655530265051 5.001345410938265
H -13.807563306907143 2.3675220206898953 5.001345410938265
O 12.95432656735968 13.152966441242235 4.322270028704807
H 13.85432656735968 13.152966441242235 4.322270028704807
H 12.661315228348238 14.00393315928162 4.322270028704807
O 1.175257126403844 -13.554549482525378 3.643194646471354
H 2.075257126403844 -13.554549482525378 3.643194646471354
H 0.882245787392403 -12.703582764485992 3.643194646471354
O -8.239317179988078 14.306314191059267 2.9641192642378953
H -7.339317179988077 14.306314191059267 2.9641192642378953
H -8.532328518999519 15.157280909098652 2.9641192642378953
O 17.66000912102134 0.033796257126067264 2.2850438820044405
H 18.560009121021338 0.033796257126067264 2.2850438820044405
H 17.3669977820099 0.8847629751654524 2.2850438820044405
O -11.18597872941326 -6.951958360372254 1.6059684997709844
H -10.28597872941326 -6.951958360372254 1.6059684997709844
H -11.478990068424702 -6.100991642332869 1.6059684997709844
O 5.4041792627111604 17.723219098733505 0.9268931175375292
H 6.304179262711161 17.723219098733505 0.9268931175375292
H 5.111167923699719 18.57418581677289 0.9268931175375292
O 9.828596636352572 -11.679540223238824 0.24781773530407414
H 10.728596636352572 -11.679540223238824 0.24781773530407414
H 9.53558529734113 -10.828573505199438 0.24781773530407414
O -13.246534335285922 6.986742569139778 -0.4312576469293822
H -12.346534335285922 6.986742569139778 -0.4312576469293822
H -13.539545674297363 7.837709287179163 -0.4312576469293822
O 16.269883175822304 8.792557712103301 -1.1103330291628368
H 17.169883175822303 8.792557712103301 -1.1103330291628368
H 15.976871836810863 9.643524430142687 -1.1103330291628368
O -4.169328090421985 -12.352195226213723 -1.7894084113962956
H -3.269328090421985 -12.352195226213723 -1.7894084113962956
H -4.462339429433426 -11.501228508174338 -1.7894084113962956
O -3.375809115926944 16.82670487900403 -2.4684837936297526
H -2.475809115926944 16.82670487900403 -2.4684837936297526
H -3.668820454938385 17.677671597043414 -2.4684837936297526
O 15.559545846956897 -5.024151569428966 -3.1475591758632038
H 16.459545846956896 -5.024151569428966 -3.1475591758632038
H 15.266534507945456 -4.173184851389581 -3.1475591758632038
O -12.82904693066316 -1.7288976680044104 -3.826634558096662
H -11.92904693066316 -1.7288976680044104 -3.826634558096662
H -13.122058269674602 -0.8779309499650252 -3.826634558096662
O 10.016964420564953 14.775263379388065 -4.505709940330118
H 10.916964420564954 14.775263379388065 -4.505709940330118
H 9.723953081553512 15.62623009742745 -4.505709940330118
O 4.398506284000672 -12.374510636501864 -5.184785322563575
H 5.2985062840006725 -12.374510636501864 -5.184785322563575
H 4.105494944989231 -11.523543918462478 -5.184785322563575
O -9.516016352342575 10.996534804222994 -5.863860704797027
H -8.616016352342575 10.996534804222994 -5.863860704797027
H -9.809027691354016 11.84750152226238 -5.863860704797027
O 15.955546402413482 3.3184008247385517 -6.542936087030487
H 16.85554640241348 3.3184008247385517 -6.542936087030487
H 15.662535063402041 4.169367542777937 -6.542936087030487
O -7.4159112996611976 -7.917932522603984 -7.222011469263943
H -6.515911299661197 -7.917932522603984 -7.222011469263943
H -7.708922638672639 -7.066965804564599 -7.222011469263943
O 1.9664883103701016 15.448008784806023 -7.901086851497396
H 2.8664883103701015 15.448008784806023 -7.901086851497396
H 1.6734769713586606 16.29897550284541 -7.901086851497396
O 10.513367405183569 -7.339113908912001 -8.580162233730855
H 11.41336740518357 -7.339113908912001 -8.580162233730855
H 10.220356066172128 -6.488147190872616 -8.580162233730855
O -10.330451660664291 3.287730208232665 -9.259237615964311
H -9.430451660664291 3.287730208232665 -9.259237615964311
H -10.623462999675732 4.1386969262720505 -9.259237615964311
O 11.211972019793631 9.220276185146377 -9.938312998197768
H 12.111972019793631 9.220276185146377 -9.938312998197768
H 10.91896068078219 10.071242903185762 -9.938312998197768
O -0.07040244667775908 -8.686004168045653 -10.61738838043122
H 0.8295975533222409 -8.686004168045653 -10.61738838043122
H -0.3634137856892001 -7.835037450006268 -10.61738838043122
O -3.5625956745352383 10.837273750055203 -11.296463762664677
H -2.6625956745352384 10.837273750055203 -11.296463762664677
H -3.8556070135466793 11.68824046809459 -11.296463762664677
O 10.958808605486087 -0.3281324416003639 -11.975539144898136
H 11.858808605486088 -0.3281324416003639 -11.975539144898136
H 10.665797266474646 0.5228342764390213 -11.975539144898136
O -5.5531218692078985 -1.6715955764573476 -12.654614527131589
H -4.653121869207898 -1.6715955764573476 -12.654614527131589
H -5.84613320821934 -0.8206288584179624 -12.654614527131589
O 4.391460723234096 8.869937792115456 -13.333689909365047
H 5.291460723234096 8.869937792115456 -13.333689909365047
H 4.098449384222655 9.720904510154842 -13.333689909365047
O 4.016876710040549 -3.0419731081477077 -14.012765291598502
H 4.916876710040549 -3.0419731081477077 -14.012765291598502
H 3.723865371029108 -2.1910063901083223 -14.012765291598502
O -1.0572793111081324 3.5563482529954715 -14.691840673831958
H -0.15727931110813242 3.5563482529954715 -14.691840673831958
H -1.3502906501195735 4.4073149710348565 -14.691840673831958


