%chk=cyanide_solvated_1_optimized_Reduced_Structure.chk
#p B3LYP empiricaldispersion=gd3 scrf=(cpcm,solvent=water) scf=(maxcycles=500,xqc,maxconventional=1000) 6-31+G(2df,p)

Reduced_Structure

-4 1
Fe          -0.00004999999882       -0.00017999999839        0.00006000000123
C           -1.42305999999890        1.39194000001696       -0.02168999999801
C           -1.39203000000878       -1.42336000000982       -0.01658000000060
C            0.02706000001541       -0.00347999999326       -1.98599000002100
C            1.42325999999549       -1.39195999999623        0.02171000000176
C            1.39168000000471        1.42333000000085        0.01663999999774
C           -0.02714999999736        0.00309999999975        1.98610000000626
N           -2.25983000002141        2.21101000000842       -0.03459999999642
N           -2.21082000000913       -2.26042000000015       -0.02639000000311
N            0.04300999999359       -0.00538000000384       -3.15810999998132
N            2.26110000000152       -2.20998000001113        0.03416000000086
N            2.21010000000190        2.26076000002308        0.02633000000210
N           -0.04319999998129        0.00504000000147        3.15821000002046
O            1.08326003779400        0.28171439569993        5.68909367044000
H            0.27784907617297       -0.01112070266607        6.13630195524208
H            0.84994766993385        0.22883141496013        4.74094825302475
O           -1.72595697897044       -0.74859812083460        5.17205344922107
H           -1.19071311140450       -0.44042465696332        4.40425134267932
H           -2.02544423106262       -1.63085823231069        4.93191809938732
O            0.07637877670097        5.57985060225364        4.54322792429822
H           -0.31352999364789        4.72061454750330        4.72705116991145
H            0.69025011701656        5.45194222313339        3.81365803937253
O            3.43227991298451       -4.71865481943780        0.41263268140631
H            4.29969754263825       -4.40016712306128        0.12947096012331
H            2.86119410486126       -3.92986018416223        0.33007885074323
O           -5.04415234272022        2.58027924922861       -0.09159694383099
H           -4.12314089204335        2.26071382840350       -0.04318017856054
H           -4.94586236855962        3.53356833831749       -0.22797105395662
O            3.84178791040858        4.35902914328392        0.43886435183232
H            4.68120726176747        3.99990008589820        0.13321979061013
H            3.19117570540727        3.62698498825452        0.30799726081894
O           -2.59344090085796       -4.64018746406976        1.29551273104924
H           -2.09329519328414       -5.25922265784390        0.75219462624957
H           -2.47431178386107       -3.76303079318413        0.86932807341670
O           -3.05868037449070        4.82174482022422       -0.22649815250011
H           -2.70574535460458        3.90404021700412       -0.22110844336482
H           -2.64099921503710        5.26288921595956        0.52092020039108
O            4.96968117526183       -2.22204899032152       -0.34371051141380
H            5.29949782256098       -1.54709082577675        0.25738368448899
H            3.98823523099410       -2.16851151426853       -0.28304222854463
O           -4.60668616758946       -2.92096635279242       -1.18571745917846
H           -3.72257293963583       -2.71300732083634       -0.81075020427859
H           -5.15463914792166       -2.15807472403457       -0.97863987120092
O            2.26876912898641        6.42157913956610       -4.50451245640964
H            1.81567753523290        5.63395560083969       -4.81987306017077
H            2.37823906486634        6.31236158478526       -3.55518248523171
O            1.20024833581325       -1.49775301860023       -5.14901513780946
H            2.07938719475645       -1.65520409472370       -4.79036078843316
H            0.72929323596066       -0.97652246808253       -4.46093425703569
O           -0.78049245581833        1.73329177348335       -5.11864725533747
H           -0.43524720617345        1.13215322249404       -4.42213014876375
H           -1.72642733886876        1.79562410719101       -4.95497052005688


