%chk=cyanide_solvated_3_optimized_Oxidized_Structure.chk
#p B3LYP empiricaldispersion=gd3 scrf=(cpcm,solvent=water) scf=(maxcycles=500,xqc,maxconventional=1000) 6-31+G(2df,p)

Oxidized_Structure

-3 2
Fe          -0.00004999911096       -0.00017999998034        0.00006000075833
C           -1.42305999929007        1.39194000016699       -0.02168999997034
C           -1.39203000139874       -1.42336000019507       -0.01657999985809
C            0.02706000031218       -0.00348000143006       -1.98598998991004
C            1.42325999974987       -1.39196000033167        0.02171000009400
C            1.39167999943937        1.42333000011220        0.01663999995911
C           -0.02715000010504        0.00310000000387        1.98610000006523
N           -2.25982999998060        2.21100999942151       -0.03460000015915
N           -2.21081999936041       -2.26041999981899       -0.02638999976154
N            0.04301000016861       -0.00538000016313       -3.15810999506323
N            2.26109999989497       -2.20998000020413        0.03416000018913
N            2.21009999999750        2.26075999928693        0.02633000007686
N           -0.04319999742196        0.00504000006273        3.15820999874191
O            1.31813424674791        0.59062539196029        5.49280918070537
H            0.52050624858367        0.56288426036897        6.03796740383178
H            0.98893981699888        0.39353705638651        4.59273073844557
O           -1.61398843473414       -0.12887691809731        5.38219198041083
H           -1.11742614706435       -0.07142032972091        4.53473503992284
H           -1.94189735042724       -1.03156634033713        5.43368137766833
O           -0.50910739479789        5.23364023652787        4.31949908928252
H           -1.19600586212165        4.56630167510095        4.23407301586513
H            0.27892675544468        4.87497333227528        3.90320978455596
O            3.08699609269428       -4.67514526370946        0.88124378939480
H            3.84897019054238       -4.70376706286277        0.28834780001561
H            2.66695245159195       -3.81062601197792        0.68696500578978
O           -4.47261895762235        3.57565702323465        0.88274105624689
H           -3.78445224875834        2.91538292260189        0.66532805536763
H           -4.18974757958360        4.35670504113919        0.38599945785795
O            3.62951270462328        4.49195387394849        0.49351237090411
H            4.32438211686924        4.45036478153827       -0.17126075515451
H            3.08368294395476        3.68034565379556        0.35291061822685
O           -2.56579177980760       -4.21848827163675        1.86397545379911
H           -1.86157100624493       -4.84708189443847        1.67730591196412
H           -2.44264944552842       -3.48409615192266        1.22310955750613
O           -2.40673602466658        4.88103117883632       -0.70164202305064
H           -2.27778743545680        3.91683692073979       -0.56917997610636
H           -1.60332771422626        5.30299393904277       -0.38377508529879
O            4.61631976919694       -2.90400818215309       -1.07619326923494
H            5.26330419746232       -2.29953553711226       -0.69958605491341
H            3.73791630061699       -2.60077520454192       -0.73916144928142
O           -4.25556003804897       -3.51296572952109       -1.25633367688549
H           -3.47812673610848       -3.06586724621743       -0.84563932327722
H           -5.02896926214081       -3.14480314097290       -0.81733563609249
O            1.65483506333818        5.74824350841889       -4.56768580153850
H            1.71294831235970        5.21206889802099       -5.36548475270577
H            1.51887242581234        5.14574428399103       -3.83290796397245
O            1.14906368776183       -0.33423245473559       -5.59124266279338
H            2.05694547620468       -0.03579801414290       -5.47976166501141
H            0.74615710605633       -0.29623893220558       -4.68966047048009
O           -1.16848796734571        1.56673733901666       -5.11940686704107
H           -0.87062267620053        1.09146602621953       -4.32028880887288
H           -0.63700958499989        1.18287864472980       -5.82991776493998
O            3.71409840349128       -0.11117912881254       10.40866894079607
H            3.62873314920415       -0.98589514796564       10.80244196422052
H            3.49080216288053       -0.19790381999584        9.47772708982374
O           -2.00199954916894        0.34967193150996       10.54940327762925
H           -1.16673679094212        0.81228930402259       10.67133823045996
H           -2.50575760163454        0.83987012274664        9.89296017375016
O           -0.61755439419768        7.29980318889056        6.31890024650225
H           -1.09339460362088        6.83266494993202        7.01298567364150
H           -0.54086990926524        6.67474672041699        5.58353664545523
O            3.75535505505237       -4.03331012286965        6.77444319857323
H            3.41689124332831       -4.93036643049251        6.86326926959844
H            3.22945227600528       -3.60075155851532        6.09719168788405
O           -5.83321871135801        3.03394795232351        6.40664596390786
H           -5.23553939562739        2.74515017397669        5.71203543285141
H           -6.50687025899995        2.35215294807193        6.50044147596356
O            4.71234186051012        7.41048746010107        4.96768081883895
H            4.61149152093941        6.55197942231228        4.54739581977103
H            4.03833469692320        7.47102959855327        5.65239224023682
O           -1.17660154253370       -6.46426719372636        6.65191288306756
H           -0.82594322451547       -7.01062612466878        5.94139155896290
H           -1.39361477623970       -5.60967483522877        6.26894542693098
O           -5.11668662379829        8.04828928693972        3.84506787383770
H           -5.05160244575532        7.38662515092146        4.54053314432510
H           -4.36558229719481        7.91490569747400        3.26000551465706
O            7.84719323210365       -5.21706285765953        3.76429899519408
H            7.05210290023078       -4.72351118496541        3.54553742164586
H            7.83476502957689       -5.36790016858001        4.71538178376610
O           -7.02985296527781       -1.47588850328544        3.70466369823963
H           -6.12676644427086       -1.40318241154721        3.38597628245458
H           -7.55885861345090       -0.84596052924345        3.20382152278372
O            1.43450822779380        9.22316118975129        0.83758942284676
H            1.59353677113013        8.61836537586522        1.56776491665257
H            1.57999559704491        8.72993295719886        0.02529681346864
O            2.45630183906227       -6.80724506554210        2.65720892735599
H            2.57449072313052       -7.55713499755512        2.06412113814340
H            2.62829326577015       -6.01680132835863        2.12403958475580
O           -7.24110531348487        3.42199372265317        1.43163067738955
H           -6.29138925074883        3.37470632461184        1.23929353598805
H           -7.38404834927765        4.27985712344559        1.84661561922163
O            6.29968078663647        0.18357140395217        3.35545580989118
H            5.98858457515192        0.91807570144889        2.81929904340645
H            5.51974578677855       -0.28905608452301        3.65949785198464
O           -4.37743341938455       -6.07116804670286       -2.46446662046500
H           -4.69638621890942       -6.58224788326934       -1.71307576424448
H           -4.25961692837467       -5.16581947072522       -2.13644396136779
O           -2.71764561460870       10.51771466275845       -1.77717626233792
H           -2.53652890740237        9.59291548524538       -1.96868182994449
H           -1.96535604745585       11.02283150147916       -2.10220693188979
O            5.03841245782592       -3.48084719329123       -3.82192797903713
H            5.02254717510471       -4.44357362482734       -3.85256611219640
H            4.84173817916587       -3.23989723969219       -2.90225917324599
O           -6.62415220154438        1.80205499270972       -4.04313081776961
H           -5.79327390677363        1.49350484777136       -4.41578574665291
H           -6.47259597523898        1.94432930035431       -3.10453774168193
O            6.52830719367088        8.36022826062078       -2.80909181607035
H            6.60315319992622        8.68291418526778       -1.89725791968101
H            5.62164451259098        8.05425144070239       -2.90581702314213
O            0.82011698377639       -6.87837167424354       -3.51827307704132
H            0.73592652515502       -6.10638263142446       -2.95299831421430
H           -0.06083402440947       -7.08226462884682       -3.84965382209506
O           -3.88428780405478        6.38943055267923       -5.38903575978850
H           -3.05118177966589        5.92725740792276       -5.26025698806830
H           -4.50192703135687        6.04153858432433       -4.73925934609139
O            5.89222515101224       -1.83413018601896       -9.06070923266124
H            5.41835322805224       -1.91741667602673       -8.22787380781690
H            5.23080335386101       -1.74747869742289       -9.75506353838898
O           -4.31988454585659       -2.62994393113854       -6.68233239036304
H           -3.69433987465377       -2.32968636980687       -6.01803227189051
H           -4.43609287478100       -3.57671901532990       -6.55069287854383
O            1.19201961509384        8.59307467928124       -4.63339323823785
H            1.36551623134290        7.64495316904075       -4.54580428893286
H            0.77557030863638        8.71001999267560       -5.49352100443349
O            0.93423687842349       -2.63200188638904       -7.22240900687300
H            1.25212994304014       -3.30436175189995       -6.61316964394609
H            0.92468235607684       -1.80292527751559       -6.71605458683093
O           -4.00661346117409        2.40152885826756       -9.41430314573162
H           -4.16795433571932        1.67042246942568       -8.81070661238973
H           -3.54952919194005        3.08422945733694       -8.91344907206981
O            1.29949191428212        1.24454670637014      -10.71314702496961
H            1.85350311607612        1.48036820781893       -9.96322982262954
H            0.42173847382543        1.05787834920816      -10.36578885630209
O            3.20111009112830        2.26991374950914       11.89485819469628
H            3.32985840055590        1.46789135530342       11.36352605509438
H            4.02194575195686        2.39538570976867       12.38179691532844
O           -2.70932770182519       -2.16931362223697       11.75434118723581
H           -2.21915532951950       -2.75913588400367       11.17316044325737
H           -2.54194786799243       -1.27348725344038       11.42425848090674
O            3.03128276034744        7.56947101728987       10.38158931625193
H            2.69863377959843        6.68375711243938       10.55766724371563
H            2.32075867180083        8.05829901607735        9.95479899246783
O            5.78812931568281       -5.17658288069242       11.52517846493252
H            6.26588505504075       -4.82727221794790       10.76615452423179
H            4.93942078495430       -5.49474112040246       11.20178886561379
O           -4.95599998957596        4.68831511941917        8.56877886043920
H           -5.20215912691429        4.10468719702235        7.83415514569495
H           -5.72464081874037        5.24385339511848        8.73503097260360
O            7.02361699091026        4.07340262595519        8.44919611835886
H            6.35979752495144        3.37747520776198        8.43093053196950
H            6.56231486787266        4.89943731476881        8.62586975800384
O           -0.26746562483171       -6.75766241936290        9.35417702400117
H           -0.55466118154653       -6.64406596813812        8.43466566681306
H           -1.03795383499123       -7.07927009983506        9.83308766014611
O           -4.55446264495725       11.11501638342740        8.04439682982010
H           -3.87943555490894       10.44098802628679        7.91885413494295
H           -4.80113970651355       11.42880462963431        7.16857452361294
O            8.56358100955000       -1.76575709289470        7.75567573663584
H            8.99731446726439       -1.43701847299897        6.96201049198112
H            7.63140865473555       -1.54154404612006        7.67855378025591
O          -11.88960224409036       -3.00200231994621        5.71230876419632
H          -10.98382397427191       -3.29542754981946        5.57412928422812
H          -12.04778905348624       -2.28065984524039        5.09495139438384
O            3.94914105936028       12.78924774298149        3.53992199952437
H            4.01166268997091       11.92793133233803        3.96423040481320
H            3.02346075738345       12.92328266916068        3.31311770891173
O            6.05763348006605      -10.13440521390125        5.28578714819959
H            6.57043156715790       -9.84037896278865        4.52607440163512
H            5.22840314872371       -9.64690903542224        5.26995731966470
O          -10.36139084322286        7.82968288576242        4.12459457865525
H           -9.73300805742571        7.27623719078068        4.59841600471832
H           -9.90687006313079        8.16477787301345        3.34527359902133
O           10.90205370532487        2.61752180450097        5.26335878780890
H           10.90542062058977        2.84123540052377        6.19975445472439
H            9.99112891403838        2.68925351746930        4.96295581752356
O           -6.90629075126346       -6.99089785174752        2.53952454730268
H           -6.00660365327421       -7.13619613837403        2.84758370933255
H           -6.99328990220971       -6.04842104714368        2.36792054848880
O           -1.66924882263551       12.17274449927625        3.61064925077178
H           -1.33705394400225       11.37393770604017        4.03199976088037
H           -1.98413700780501       11.91903150168052        2.73752381364282
O            9.22538813599605       -6.83569535340760        1.84779759633844
H            9.96033370653485       -6.27591287863903        1.57887731025154
H            8.72722316784908       -6.32052037188207        2.50198050135899
O          -12.28741909042444        1.04192041708406        1.78441250914797
H          -11.39482176761490        1.36908972218336        1.63799226508545
H          -12.86106625150944        1.51607335804822        1.17363267786608
O            6.35920349350804        9.24134614721021       -0.08957593450707
H            6.19373089749179        8.64785447134180        0.64908949781640
H            6.03649174353485       10.11152660637834        0.16796391855528
O           -0.02991118713388      -10.97714328675987       -0.28134082311000
H            0.79706286491381      -10.87924509094343       -0.76434976065722
H           -0.48871264392532      -10.13371573110885       -0.33439799351596
O           -7.50655520161028        8.63176071324061       -0.68967474464100
H           -6.74502942004211        8.05283698357973       -0.78726129920555
H           -7.16678262611580        9.52538493161690       -0.57726069439395
O           11.37107888206770       -1.67854581150939        1.83330286262066
H           11.67869043240398       -0.92850892641537        2.35264637676389
H           10.40997992801871       -1.66559683176094        1.86484697249737
O           -8.98052063116496       -4.05245897863323       -4.59112980580965
H           -8.40424979067615       -4.80974739004525       -4.44808503987748
H           -8.50707012444807       -3.27613692874136       -4.27787706230939
O            2.39402513178158       13.44119416630530       -2.16606896590816
H            2.52478385280425       12.56258722280118       -2.53600974509892
H            2.08915447857218       13.32182460102374       -1.26102845805799
O            5.34197402194297       -9.38129256882096       -1.39112505585353
H            6.00207183580016       -8.91372700335040       -0.86921244995561
H            4.81056811207274       -8.71556066228341       -1.83759315513441
O          -11.18156802336870        4.60121660625097       -1.93139217728104
H          -10.53779164634924        4.07549478963472       -2.41535266416565
H          -10.68543986982664        5.23183390849978       -1.39991411647851
O            9.88515350007021        5.67983938000596       -5.78743004974753
H            9.85490205882395        5.85932558606470       -4.84272730907437
H            9.06693707967898        6.02133844316389       -6.16208951567308
O           -4.57532548691065       -9.30445243260911       -7.10167245526764
H           -3.80825118954059       -8.99092687827299       -7.59145027984108
H           -4.59696817552390       -8.82159840742619       -6.26989598590825
O           -2.84772179774383       10.82034934345602       -7.97029458417311
H           -2.71574182529470        9.94139574546048       -8.33929013709077
H           -3.17111152455929       10.70041629823706       -7.07197407455162
O            8.56247789866775       -0.79464347054839       -9.13931440428131
H            9.02571003369345       -1.39272135384108       -8.54496460729084
H            7.64926608549218       -1.11974436481946       -9.18443689491973
O           -8.94770609326642       -0.16358284515720       -8.65670948543846
H           -8.50975039942083       -0.94509595288454       -8.30544082438887
H           -8.68462990250790        0.57792280021571       -8.10289005557848
O            5.06171652567731        8.51557877921659       -8.03618043303507
H            4.93725570130436        7.68860218710653       -7.56084671859261
H            5.08027018671537        9.21605147430521       -7.37626524868054
O            0.44040939123185       -7.66785001679997       -9.20054587297174
H            0.93378993261755       -7.57260812484194       -8.38021274643886
H            0.31223605242947       -6.78308285529437       -9.55692830203435
O           -6.87664800339553        7.04859093796913      -10.12486938513741
H           -6.79070672391478        6.11926011836201      -10.35960048773707
H           -6.39593200982109        7.17476453667808       -9.30091045174583
O            5.44077754805176        2.96384971103498       -7.23729791241149
H            5.88003781816807        3.01718249384800       -8.09345542079931
H            6.02391482435176        2.46495789594688       -6.65789629683464
O           -2.51781619724430       -2.68736856680474      -11.62738188827480
H           -1.99933628103822       -2.87115520694088      -10.83821362610674
H           -3.25749311082672       -2.13623065936775      -11.35307483593710
O            0.06620010386057        6.29878996298198       -9.65589685765133
H           -0.05423918381320        5.78633603505307      -10.46165627595214
H            0.91697516957314        6.74327095012935       -9.72914962472003
O            2.24557042990501       -0.09967500156847      -13.06827671901577
H            1.49766318065858       -0.66463405290601      -13.28686901875965
H            1.97371832695729        0.41487647385935      -12.29192365567890


