%chk=Fe_2_OTPSS_2_5.chk
#p OTPSS 6-31+G(2df,p) scf=(maxcycles=500,xqc,maxconventional=50) scrf=(cpcm,solvent=water)

Fe_2_OTPSS_solvated_radius_4

2 5
Fe        -0.00000       -0.00013        0.00001
O          2.11604       -0.24075        0.54693
H          2.87202       -0.32887       -0.04702
O         -0.24719       -2.18270       -0.00854
H         -0.98472       -2.68088       -0.38325
O         -0.55414        0.05427        2.08022
H         -0.67454        0.84509        2.62192
O         -2.11602        0.24062       -0.54702
H         -2.46949        0.28492       -1.44440
O          0.24718        2.18268        0.00861
H         -0.35920        2.83686       -0.36137
O          0.55416       -0.05383       -2.08023
H          0.67473       -0.84427       -2.62245
H          0.85028        0.69426       -2.61503
H          0.35850       -2.83684        0.36250
H          2.46955       -0.28406        1.44435
H          0.98526        2.68086        0.38211
H         -0.85029       -0.69342        2.61556
H         -2.87231        0.32738        0.04710
O 1.7984273475580597 6.26315789473288e-05 4.125
H 2.69842734755806 6.26315789473288e-05 4.125
H 1.5054160085466186 0.8510293496183325 4.125
O -2.1947659840873954 -2.010514116531613 3.375
H -1.2947659840873955 -2.010514116531613 3.375
H -2.4877773230988365 -1.1595473984922278 3.375
O 0.3195357360390799 3.6411154819153575 2.6249999999999996
H 1.21953573603908 3.6411154819153575 2.6249999999999996
H 0.026524397027638924 4.4920821999547424 2.6249999999999996
O 2.4889721664815125 -3.2463731670959546 1.875
H 3.3889721664815124 -3.2463731670959546 1.875
H 2.1959608274700715 -2.395406449056569 1.875
O -4.29051076927329 0.7589918987365891 1.125
H -3.39051076927329 0.7589918987365891 1.125
H -4.583522108284731 1.6099586167759743 1.125
O 3.783682708342943 2.4069378821199052 0.3750000000000003
H 4.6836827083429435 2.4069378821199052 0.3750000000000003
H 3.490671369331502 3.25790460015929 0.3750000000000003
O -1.164165461700572 -4.330539617019468 -0.3749999999999998
H -0.26416546170057187 -4.330539617019468 -0.3749999999999998
H -1.457176800712013 -3.4795728989800834 -0.3749999999999998
O -2.008230358407198 3.866769742049357 -1.1249999999999996
H -1.108230358407198 3.866769742049357 -1.1249999999999996
H -2.301241697418639 4.717736460088743 -1.1249999999999996
O 3.8425351280956153 -1.4032284940727184 -1.8750000000000007
H 4.742535128095615 -1.4032284940727184 -1.8750000000000007
H 3.549523789084174 -0.5522617760333333 -1.8750000000000007
O -3.3785367383891964 -1.3945443100519372 -2.624999999999999
H -2.4785367383891965 -1.3945443100519372 -2.624999999999999
H -3.6715480774006375 -0.5435775920125521 -2.624999999999999
O 1.2615555105392433 2.695953725555348 -3.375
H 2.161555510539243 2.695953725555348 -3.375
H 0.9685441715278023 3.5469204435947335 -3.375
O 0.5382336481371013 -1.7159412558910214 -4.125
H 1.4382336481371012 -1.7159412558910214 -4.125
H 0.2452223091256603 -0.8649745378516362 -4.125



