%chk=Fe_2_M06_2_5.chk
#p M06 6-31+G(2df,p) empiricaldispersion=gd3 scf=(maxcycles=500,xqc,maxconventional=50) scrf=(cpcm,solvent=water)

Fe_2_M06_solvated_radius_4

2 5
Fe         0.00013        0.00007       -0.00011
O          0.14693        1.69704       -1.28236
H          0.26613        2.61506       -1.00727
O         -2.13987        0.25340        0.08563
H         -2.74667       -0.16873        0.70681
O         -0.22573       -1.30875       -1.64411
H          0.48259       -1.76661       -2.11525
O         -0.14766       -1.69658        1.28268
H         -0.10966       -1.69144        2.24762
O          2.13984       -0.25454       -0.08522
H          2.67473       -0.81592        0.49014
O          0.22613        1.30931        1.64359
H         -0.48226        1.76687        2.11491
H          1.06073        1.58337        2.04571
H         -2.67548        0.81593       -0.48791
H          0.10835        1.69232       -2.24729
H          2.74729        0.16522       -0.70737
H         -1.06031       -1.58206       -2.04676
H         -0.26594       -2.61482        1.00789
O 1.7983984001896385 -4.526315789470615e-05 4.12507
H 2.6983984001896384 -4.526315789470615e-05 4.12507
H 1.5053870611781974 0.8509214548814905 4.12507
O -2.1947949314558164 -2.0106220112684547 3.37507
H -1.2947949314558165 -2.0106220112684547 3.37507
H -2.4878062704672574 -1.1596552932290696 3.37507
O 0.3195067886706588 3.6410075871785157 2.6250699999999996
H 1.2195067886706588 3.6410075871785157 2.6250699999999996
H 0.026495449659217796 4.491974305217901 2.6250699999999996
O 2.4889432191130916 -3.2464810618327964 1.87507
H 3.3889432191130915 -3.2464810618327964 1.87507
H 2.1959318801016505 -2.395514343793411 1.87507
O -4.290539716641711 0.7588840039997471 1.12507
H -3.3905397166417113 0.7588840039997471 1.12507
H -4.583551055653152 1.6098507220391323 1.12507
O 3.783653760974522 2.4068299873830634 0.3750700000000003
H 4.683653760974522 2.4068299873830634 0.3750700000000003
H 3.490642421963081 3.2577967054224484 0.3750700000000003
O -1.164194409068993 -4.33064751175631 -0.37492999999999976
H -0.26419440906899305 -4.33064751175631 -0.37492999999999976
H -1.4572057480804341 -3.479680793716925 -0.37492999999999976
O -2.008259305775619 3.8666618473125154 -1.1249299999999995
H -1.108259305775619 3.8666618473125154 -1.1249299999999995
H -2.30127064478706 4.717628565351901 -1.1249299999999995
O 3.8425061807271943 -1.4033363888095605 -1.8749300000000007
H 4.742506180727195 -1.4033363888095605 -1.8749300000000007
H 3.5494948417157532 -0.5523696707701753 -1.8749300000000007
O -3.3785656857576174 -1.3946522047887793 -2.624929999999999
H -2.4785656857576175 -1.3946522047887793 -2.624929999999999
H -3.6715770247690585 -0.5436854867493941 -2.624929999999999
O 1.2615265631708221 2.6958458308185063 -3.37493
H 2.1615265631708223 2.6958458308185063 -3.37493
H 0.9685152241593811 3.5468125488578917 -3.37493
O 0.5382047007686802 -1.7160491506278635 -4.12493
H 1.4382047007686802 -1.7160491506278635 -4.12493
H 0.24519336175723921 -0.8650824325884783 -4.12493



