%chk=Fe_2_HSE06_2_5.chk
#p HSEH1PBE 6-31+G(2df,p) scf=(maxcycles=500,xqc,maxconventional=50) scrf=(cpcm,solvent=water)

Fe_2_HSE06_solvated_radius_4

2 5
Fe        -0.00005       -0.00011        0.00004
O         -1.88280        0.02660        1.01994
H         -2.75805        0.04353        0.61588
O          0.03667        2.14709        0.01023
H          0.62440        2.71330       -0.50310
O          1.04485       -0.02650        1.83664
H          1.34003       -0.81069        2.31440
O          1.88262       -0.02676       -1.02015
H          2.01019       -0.02414       -1.97582
O         -0.03614       -2.14720       -0.01025
H          0.53155       -2.72823       -0.52955
O         -1.04511        0.02702       -1.83649
H         -1.33999        0.81164       -2.31373
H         -1.36689       -0.74199       -2.32169
H         -0.53125        2.72849        0.52886
H         -2.01057        0.02420        1.97559
H         -0.62302       -2.71380        0.50362
H          1.36623        0.74296        2.32140
H          2.75793       -0.04456       -0.61627
O 1.7984684001896385 4.473684210520783e-05 4.124976315789474
H 2.6984684001896384 4.473684210520783e-05 4.124976315789474
H 1.5054570611781974 0.8510114548814903 4.124976315789474
O -2.1947249314558164 -2.010532011268455 3.374976315789474
H -1.2947249314558165 -2.010532011268455 3.374976315789474
H -2.4877362704672574 -1.1595652932290699 3.374976315789474
O 0.3195767886706588 3.6410975871785154 2.6249763157894734
H 1.2195767886706588 3.6410975871785154 2.6249763157894734
H 0.02656544965921781 4.492064305217901 2.6249763157894734
O 2.4890132191130916 -3.2463910618327967 1.8749763157894737
H 3.3890132191130915 -3.2463910618327967 1.8749763157894737
H 2.1960018801016505 -2.3954243437934117 1.8749763157894737
O -4.290469716641711 0.7589740039997469 1.1249763157894737
H -3.3904697166417113 0.7589740039997469 1.1249763157894737
H -4.583481055653152 1.609940722039132 1.1249763157894737
O 3.7837237609745222 2.406919987383063 0.374976315789474
H 4.683723760974522 2.406919987383063 0.374976315789474
H 3.490712421963081 3.2578867054224485 0.374976315789474
O -1.164124409068993 -4.33055751175631 -0.37502368421052606
H -0.26412440906899304 -4.33055751175631 -0.37502368421052606
H -1.4571357480804341 -3.479590793716925 -0.37502368421052606
O -2.008189305775619 3.866751847312515 -1.125023684210526
H -1.108189305775619 3.866751847312515 -1.125023684210526
H -2.30120064478706 4.7177185653519 -1.125023684210526
O 3.8425761807271943 -1.4032463888095605 -1.875023684210527
H 4.742576180727195 -1.4032463888095605 -1.875023684210527
H 3.5495648417157533 -0.5522796707701754 -1.875023684210527
O -3.3784956857576174 -1.3945622047887793 -2.6250236842105252
H -2.4784956857576175 -1.3945622047887793 -2.6250236842105252
H -3.6715070247690584 -0.5435954867493942 -2.6250236842105252
O 1.2615965631708221 2.695935830818506 -3.375023684210526
H 2.1615965631708223 2.695935830818506 -3.375023684210526
H 0.9685852241593811 3.546902548857891 -3.375023684210526
O 0.5382747007686802 -1.7159591506278635 -4.125023684210526
H 1.4382747007686802 -1.7159591506278635 -4.125023684210526
H 0.24526336175723923 -0.8649924325884784 -4.125023684210526



