%chk=Fe_2_TPSSh_2_5.chk
#p TPSSH 6-31+G(2df,p) scf=(maxcycles=500,xqc,maxconventional=50) scrf=(cpcm,solvent=water)

Fe_2_TPSSh_solvated_radius_4

2 5
Fe        -0.00001        0.00001       -0.00000
O          1.72390        0.81497        0.97594
H          1.85772        0.88354        1.93333
O         -0.91753        1.94327       -0.00587
H         -1.69026        2.21566       -0.52339
O          0.90599        0.42075       -1.86044
H          1.51583       -0.15629       -2.34541
O         -1.72385       -0.81508       -0.97596
H         -2.51375       -1.18249       -0.55153
O          0.91754       -1.94325        0.00590
H          1.69044       -2.21551        0.52322
O         -0.90600       -0.42075        1.86044
H         -1.51571        0.15632        2.34553
H         -0.85278       -1.25643        2.34923
H         -0.63664        2.71684        0.50580
H          2.51342        1.18320        0.55148
H          0.63657       -2.71690       -0.50562
H          0.85265        1.25635       -2.34936
H         -1.85753       -0.88386       -1.93335
O 1.7984368212422701 1.8421052631588604e-05 4.124996842105263
H 2.6984368212422702 1.8421052631588604e-05 4.124996842105263
H 1.505425482230829 0.8509851390920168 4.124996842105263
O -2.194756510403185 -2.0105583270579284 3.374996842105263
H -1.294756510403185 -2.0105583270579284 3.374996842105263
H -2.487767849414626 -1.1595916090185432 3.374996842105263
O 0.3195452097232904 3.641071271389042 2.6249968421052627
H 1.2195452097232904 3.641071271389042 2.6249968421052627
H 0.026533870711849428 4.492037989428427 2.6249968421052627
O 2.488981640165723 -3.24641737762227 1.8749968421052632
H 3.388981640165723 -3.24641737762227 1.8749968421052632
H 2.195970301154282 -2.3954506595828846 1.8749968421052632
O -4.290501295589079 0.7589476882102734 1.1249968421052632
H -3.3905012955890794 0.7589476882102734 1.1249968421052632
H -4.58351263460052 1.6099144062496586 1.1249968421052632
O 3.7836921820271536 2.40689367159359 0.37499684210526346
H 4.683692182027154 2.40689367159359 0.37499684210526346
H 3.4906808430157126 3.2578603896329748 0.37499684210526346
O -1.1641559880163614 -4.330583827545784 -0.3750031578947366
H -0.2641559880163614 -4.330583827545784 -0.3750031578947366
H -1.4571673270278025 -3.479617109506399 -0.3750031578947366
O -2.0082208847229874 3.8667255315230418 -1.1250031578947364
H -1.1082208847229875 3.8667255315230418 -1.1250031578947364
H -2.3012322237344285 4.717692249562427 -1.1250031578947364
O 3.8425446017798257 -1.4032727045990343 -1.8750031578947375
H 4.742544601779826 -1.4032727045990343 -1.8750031578947375
H 3.5495332627683847 -0.5523059865596491 -1.8750031578947375
O -3.378527264704986 -1.394588520578253 -2.625003157894736
H -2.478527264704986 -1.394588520578253 -2.625003157894736
H -3.671538603716427 -0.5436218025388679 -2.625003157894736
O 1.2615649842234538 2.6959095150290326 -3.375003157894737
H 2.1615649842234537 2.6959095150290326 -3.375003157894737
H 0.9685536452120127 3.546876233068418 -3.375003157894737
O 0.5382431218213118 -1.7159854664173373 -4.125003157894737
H 1.4382431218213119 -1.7159854664173373 -4.125003157894737
H 0.24523178280987085 -0.8650187483779521 -4.125003157894737



