%chk=catecholate_Reduced_Structure.chk
#p B3LYP empiricaldispersion=gd3 scrf=(cpcm,solvent=water) scf=(maxcycles=500,xqc,maxconventional=1000) 6-31+G(2df,p)

Reduced_Structure

-4 1
C         -3.40352       -3.70022       -0.57317
C         -2.76172       -4.22224        0.55146
C         -1.63638       -3.55910        1.09077
C         -1.14435       -2.36758        0.52721
C         -1.81057       -1.82777       -0.64601
C         -2.92447       -2.50942       -1.16501
O         -1.30673       -0.73452       -1.15104
O         -0.10727       -1.70982        0.96469
H         -4.27614       -4.20449       -0.99397
H         -3.12569       -5.14105        1.01661
H         -1.12455       -3.95425        1.96816
H         -3.41524       -2.08574       -2.04094
Fe         0.09705       -0.02306       -0.00346
C          5.17322       -0.59969       -0.60791
C          5.20227        0.06098        0.62025
C          3.98947        0.44766        1.23958
C          2.74246        0.17873        0.64802
C          2.71211       -0.50231       -0.63655
C          3.93150       -0.88037       -1.22707
O          1.53552       -0.71724       -1.15159
O          1.58879        0.49501        1.16399
H          6.10359       -0.90323       -1.09333
H          6.15559        0.28388        1.10497
H          3.99522        0.96504        2.19902
H          3.89274       -1.39564       -2.18689
C         -2.13919        4.54127       -0.53787
C         -2.86181        4.10295        0.57340
C         -2.56819        2.84663        1.15030
C         -1.55921        2.01708        0.63117
C         -0.81049        2.46983       -0.52900
C         -1.11790        3.72786       -1.07839
O          0.12401        1.67429       -0.96960
O         -1.22500        0.85622        1.12527
H         -2.35909        5.51050       -0.99093
H         -3.65525        4.72371        0.99538
H         -3.12374        2.48750        2.01630
H         -0.54483        4.05617       -1.94530


